POSCAR 
1.0 
5.110600 0.000000 0.000000 
0.000000 9.811800 0.000000 
0.000000 0.000000 27.920198 
O Ti 
1 80 
Selective Dynamics
Direct 
0.620226 0.398304 0.486777 T T T 
0.196163 0.466877 0.024312 T T T 
0.713656 0.509496 0.076229 T T T 
0.711834 0.054996 0.123800 T T T 
0.203022 0.102924 0.174738 T T T 
0.713183 0.150427 0.225561 T T T 
0.214616 0.196079 0.273236 T T T 
0.701712 0.238999 0.324886 T T T 
0.237459 0.309885 0.375951 T T T 
0.752081 0.324205 0.421571 T T T 
0.289638 0.282211 0.478875 T T T 
0.534425 0.242469 0.050501 T T T 
0.041146 0.282702 0.099357 T T T 
0.543492 0.327421 0.150551 T T T 
0.044026 0.378752 0.199389 T T T 
0.543114 0.423309 0.250683 T T T 
0.038988 0.465095 0.299270 T T T 
0.558193 0.523786 0.348928 T T T 
0.493426 0.078174 0.403389 T T T 
0.987913 0.064287 0.447249 T T T 
0.696198 0.966915 0.024304 T T T 
0.213661 0.009425 0.076085 T T T 
0.211978 0.555076 0.123821 T T T 
0.702609 0.602997 0.175048 T T T 
0.212492 0.651162 0.225730 T T T 
0.714485 0.696217 0.274235 T T T 
0.201301 0.740418 0.325529 T T T 
0.728113 0.808116 0.377280 T T T 
0.242326 0.830004 0.422454 T T T 
0.793655 0.786893 0.480152 T T T 
0.034373 0.742552 0.050484 T T T 
0.541079 0.782699 0.099472 T T T 
0.043552 0.827261 0.150497 T T T 
0.543906 0.878578 0.199607 T T T 
0.042023 0.923342 0.250543 T T T 
0.536831 0.964454 0.299593 T T T 
0.051161 0.025512 0.348097 T T T 
0.001485 0.578701 0.402874 T T T 
0.488650 0.569256 0.447687 T T T 
0.731163 0.395192 0.972288 T T T 
0.240343 0.377750 0.928155 T T T 
0.294556 0.924423 0.873369 T T T 
0.783274 0.980754 0.825345 T T T 
0.288671 0.019041 0.775643 T T T 
0.790489 0.062704 0.724929 T T T 
0.289710 0.108067 0.675125 T T T 
0.789562 0.151324 0.624836 T T T 
0.286781 0.191759 0.574775 T T T 
0.784900 0.230201 0.519262 T T T 
0.489956 0.128377 0.946446 T T T 
0.985527 0.141747 0.903369 T T T 
0.448358 0.205385 0.850172 T T T 
0.962753 0.246408 0.799483 T T T 
0.458933 0.290748 0.750944 T T T 
0.955479 0.335765 0.700149 T T T 
0.457019 0.380364 0.650147 T T T 
0.459728 0.923664 0.600490 T T T 
0.961780 0.967192 0.551282 T T T 
0.231494 0.895128 0.972211 T T T 
0.740434 0.877930 0.928197 T T T 
0.794369 0.424207 0.873367 T T T 
0.283133 0.480459 0.825500 T T T 
0.788904 0.518840 0.775845 T T T 
0.289458 0.562242 0.725178 T T T 
0.788780 0.608073 0.675812 T T T 
0.289876 0.651395 0.625846 T T T 
0.790390 0.693791 0.575606 T T T 
0.285663 0.735153 0.521376 T T T 
0.989770 0.628274 0.946496 T T T 
0.485599 0.641694 0.903501 T T T 
0.948381 0.705332 0.850388 T T T 
0.463026 0.746277 0.799729 T T T 
0.959256 0.790553 0.751318 T T T 
0.455785 0.835955 0.700578 T T T 
0.958384 0.879793 0.650630 T T T 
0.959754 0.426151 0.600514 T T T 
0.458773 0.472010 0.550241 T T T 
0.052003 0.181819 0.002104 T T T 
0.552216 0.681882 0.002217 T T T 
0.449060 0.009071 0.500880 T T T 
0.952733 0.514883 0.500860 T T T 
