POSCAR                                  
   1.00000000000000     
     5.1105999899999999    0.0000000000000000    0.0000000000000000
     0.0000000000000000    9.8117999999999999    0.0000000000000000
     0.0000000000000000    0.0000000000000000   28.1201991999999983
   Ti
     80
Selective dynamics
Direct
  0.1961629025062514  0.4668769083387646  0.0243122898070989   T   T   T
  0.7136563051076366  0.5094963692243613  0.0762288524976061   T   T   T
  0.7118338268380315  0.0549964063875864  0.1237995836107935   T   T   T
  0.2030216840052735  0.1029235339733475  0.1747377215668173   T   T   T
  0.7131832551360251  0.1504274100599330  0.2255612688774184   T   T   T
  0.2146156552421284  0.1960790458041567  0.2732357382874955   T   T   T
  0.7017120318326621  0.2389988514827289  0.3248862291218844   T   T   T
  0.2374594529660932  0.3098846358547205  0.3759512813279687   T   T   T
  0.7520805576113012  0.3242046745980396  0.4215710124379612   T   T   T
  0.2896384801790406  0.2822114940813352  0.4752932223519243   T   T   T
  0.5344247994841895  0.2424690601152172  0.0505014252602553   T   T   T
  0.0411463219256939  0.2827015939547186  0.0993567579051529   T   T   T
  0.5434923092486438  0.3274207004147056  0.1505508016955530   T   T   T
  0.0440261072777547  0.3787524868814065  0.1993885172161979   T   T   T
  0.5431143415857124  0.4233085660128800  0.2506830390202278   T   T   T
  0.0389877652666002  0.4650954412308049  0.2992699048984124   T   T   T
  0.5581925849194693  0.5237857532536376  0.3489282649370320   T   T   T
  0.4934259308953437  0.0781742329283641  0.4033885433526870   T   T   T
  0.9879128634115570  0.0642868426281224  0.4472493306060618   T   T   T
  0.6961979645875550  0.9669148063170319  0.0243037189388952   T   T   T
  0.2136610490504814  0.0094253835456787  0.0760852762110994   T   T   T
  0.2119779665540053  0.5550761051370209  0.1238206540954274   T   T   T
  0.7026087182786102  0.6029970560372538  0.1750479340877480   T   T   T
  0.2124920930462087  0.6511619654646086  0.2257300577603113   T   T   T
  0.7144851501660003  0.6962168875883773  0.2742349732462174   T   T   T
  0.2013009165323515  0.7404181643046450  0.3255289925032489   T   T   T
  0.7281131909268155  0.8081161174325425  0.3772803097435313   T   T   T
  0.2423264548945109  0.8300038668307834  0.4224542585770366   T   T   T
  0.7936551806448348  0.7868931179366428  0.4765704310223514   T   T   T
  0.0343733985432115  0.7425519429119326  0.0504838730173797   T   T   T
  0.5410787130713083  0.7826988195811260  0.0994715116735758   T   T   T
  0.0435519090288505  0.8272605545012416  0.1504968208271781   T   T   T
  0.5439063711775959  0.8785784743612548  0.1996074074319297   T   T   T
  0.0420232915307348  0.9233417887196145  0.2505433651753702   T   T   T
  0.5368308087468098  0.9644537429391480  0.2995933859751265   T   T   T
  0.0511613193811681  0.0255118325016459  0.3480969641830952   T   T   T
  0.0014850889894511  0.5787014512495369  0.4028743949845279   T   T   T
  0.4886498170054405  0.5692561435164384  0.4476872129340989   T   T   T
  0.7311627170668994  0.3951921395412843  0.9722881423798539   T   T   T
  0.2403430520146833  0.3777494972662908  0.9281554752441573   T   T   T
  0.2945561987624992  0.9244229511652429  0.8733694812244007   T   T   T
  0.7832740285640480  0.9807544926819778  0.8253451721950857   T   T   T
  0.2886713537620171  0.0190406312948698  0.7756429348343662   T   T   T
  0.7904889298376518  0.0627041656906239  0.7249286445904677   T   T   T
  0.2897103350743296  0.1080668005634285  0.6751253533756398   T   T   T
  0.7895619338145135  0.1513239396671901  0.6248355868967539   T   T   T
  0.2867809168944359  0.1917591719137675  0.5747752050057791   T   T   T
  0.7848999456351546  0.2302007428778951  0.5228437351529248   T   T   T
  0.4899558326114286  0.1283773334034118  0.9464456175343354   T   T   T
  0.9855268022990650  0.1417472788536691  0.9033685565650588   T   T   T
  0.4483583983618624  0.2053847419353769  0.8501721137206887   T   T   T
  0.9627530822775408  0.2464083194959780  0.7994829762230239   T   T   T
  0.4589330283671262  0.2907483171887567  0.7509440404725342   T   T   T
  0.9554794636238120  0.3357647741250587  0.7001494293876356   T   T   T
  0.4570194487897539  0.3803644145251900  0.6501474915101693   T   T   T
  0.4597277106075154  0.9236637217410643  0.6004895446083398   T   T   T
  0.9617799966487832  0.9671917578101752  0.5512823404694684   T   T   T
  0.2314937772225230  0.8951283894648248  0.9722111707796097   T   T   T
  0.7404343290815092  0.8779298818078268  0.9281971359711041   T   T   T
  0.7943691064832792  0.4242065854338713  0.8733669836470771   T   T   T
  0.2831329260115998  0.4804585793198696  0.8255005164134969   T   T   T
  0.7889040795768084  0.5188397045369482  0.7758454518714740   T   T   T
  0.2894583123746975  0.5622417245598744  0.7251779158492271   T   T   T
  0.7887796527757243  0.6080731040866757  0.6758117286382528   T   T   T
  0.2898762739803062  0.6513950836130463  0.6258462655991223   T   T   T
  0.7903895088482248  0.6937908186567044  0.5756064070887993   T   T   T
  0.2856633143633343  0.7351535041771001  0.5249578071258564   T   T   T
  0.9897704690756529  0.6282738676700854  0.9464957077011131   T   T   T
  0.4855986654083100  0.6416944881822245  0.9035006239930125   T   T   T
  0.9483812292244271  0.7053320964881789  0.8503883866794761   T   T   T
  0.4630255743627184  0.7462767456729964  0.7997292099714006   T   T   T
  0.9592559877038397  0.7905534432319794  0.7513182136436157   T   T   T
  0.4557847130701510  0.8359552433213390  0.7005784593247268   T   T   T
  0.9583841177336693  0.8797927800148391  0.6506300591382276   T   T   T
  0.9597540139933483  0.4261508907688205  0.6005144832669698   T   T   T
  0.4587734938315924  0.4720101197828604  0.5502407993120846   T   T   T
  0.0520027114261745  0.1818188208723290  0.0021043673883534   T   T   T
  0.5522157045444144  0.6818821973227678  0.0022167523847286   T   T   T
  0.4490603015634714  0.0090712826727806  0.5008799967119721   T   T   T
  0.9527334115778067  0.5148834840191471  0.5008596685304316   T   T   T
 
  0.00000000E+00  0.00000000E+00  0.00000000E+00
  0.00000000E+00  0.00000000E+00  0.00000000E+00
  0.00000000E+00  0.00000000E+00  0.00000000E+00
  0.00000000E+00  0.00000000E+00  0.00000000E+00
  0.00000000E+00  0.00000000E+00  0.00000000E+00
  0.00000000E+00  0.00000000E+00  0.00000000E+00
  0.00000000E+00  0.00000000E+00  0.00000000E+00
  0.00000000E+00  0.00000000E+00  0.00000000E+00
  0.00000000E+00  0.00000000E+00  0.00000000E+00
  0.00000000E+00  0.00000000E+00  0.00000000E+00
  0.00000000E+00  0.00000000E+00  0.00000000E+00
  0.00000000E+00  0.00000000E+00  0.00000000E+00
  0.00000000E+00  0.00000000E+00  0.00000000E+00
  0.00000000E+00  0.00000000E+00  0.00000000E+00
  0.00000000E+00  0.00000000E+00  0.00000000E+00
  0.00000000E+00  0.00000000E+00  0.00000000E+00
  0.00000000E+00  0.00000000E+00  0.00000000E+00
  0.00000000E+00  0.00000000E+00  0.00000000E+00
  0.00000000E+00  0.00000000E+00  0.00000000E+00
  0.00000000E+00  0.00000000E+00  0.00000000E+00
  0.00000000E+00  0.00000000E+00  0.00000000E+00
  0.00000000E+00  0.00000000E+00  0.00000000E+00
  0.00000000E+00  0.00000000E+00  0.00000000E+00
  0.00000000E+00  0.00000000E+00  0.00000000E+00
  0.00000000E+00  0.00000000E+00  0.00000000E+00
  0.00000000E+00  0.00000000E+00  0.00000000E+00
  0.00000000E+00  0.00000000E+00  0.00000000E+00
  0.00000000E+00  0.00000000E+00  0.00000000E+00
  0.00000000E+00  0.00000000E+00  0.00000000E+00
  0.00000000E+00  0.00000000E+00  0.00000000E+00
  0.00000000E+00  0.00000000E+00  0.00000000E+00
  0.00000000E+00  0.00000000E+00  0.00000000E+00
  0.00000000E+00  0.00000000E+00  0.00000000E+00
  0.00000000E+00  0.00000000E+00  0.00000000E+00
  0.00000000E+00  0.00000000E+00  0.00000000E+00
  0.00000000E+00  0.00000000E+00  0.00000000E+00
  0.00000000E+00  0.00000000E+00  0.00000000E+00
  0.00000000E+00  0.00000000E+00  0.00000000E+00
  0.00000000E+00  0.00000000E+00  0.00000000E+00
  0.00000000E+00  0.00000000E+00  0.00000000E+00
  0.00000000E+00  0.00000000E+00  0.00000000E+00
  0.00000000E+00  0.00000000E+00  0.00000000E+00
  0.00000000E+00  0.00000000E+00  0.00000000E+00
  0.00000000E+00  0.00000000E+00  0.00000000E+00
  0.00000000E+00  0.00000000E+00  0.00000000E+00
  0.00000000E+00  0.00000000E+00  0.00000000E+00
  0.00000000E+00  0.00000000E+00  0.00000000E+00
  0.00000000E+00  0.00000000E+00  0.00000000E+00
  0.00000000E+00  0.00000000E+00  0.00000000E+00
  0.00000000E+00  0.00000000E+00  0.00000000E+00
  0.00000000E+00  0.00000000E+00  0.00000000E+00
  0.00000000E+00  0.00000000E+00  0.00000000E+00
  0.00000000E+00  0.00000000E+00  0.00000000E+00
  0.00000000E+00  0.00000000E+00  0.00000000E+00
  0.00000000E+00  0.00000000E+00  0.00000000E+00
  0.00000000E+00  0.00000000E+00  0.00000000E+00
  0.00000000E+00  0.00000000E+00  0.00000000E+00
  0.00000000E+00  0.00000000E+00  0.00000000E+00
  0.00000000E+00  0.00000000E+00  0.00000000E+00
  0.00000000E+00  0.00000000E+00  0.00000000E+00
  0.00000000E+00  0.00000000E+00  0.00000000E+00
  0.00000000E+00  0.00000000E+00  0.00000000E+00
  0.00000000E+00  0.00000000E+00  0.00000000E+00
  0.00000000E+00  0.00000000E+00  0.00000000E+00
  0.00000000E+00  0.00000000E+00  0.00000000E+00
  0.00000000E+00  0.00000000E+00  0.00000000E+00
  0.00000000E+00  0.00000000E+00  0.00000000E+00
  0.00000000E+00  0.00000000E+00  0.00000000E+00
  0.00000000E+00  0.00000000E+00  0.00000000E+00
  0.00000000E+00  0.00000000E+00  0.00000000E+00
  0.00000000E+00  0.00000000E+00  0.00000000E+00
  0.00000000E+00  0.00000000E+00  0.00000000E+00
  0.00000000E+00  0.00000000E+00  0.00000000E+00
  0.00000000E+00  0.00000000E+00  0.00000000E+00
  0.00000000E+00  0.00000000E+00  0.00000000E+00
  0.00000000E+00  0.00000000E+00  0.00000000E+00
  0.00000000E+00  0.00000000E+00  0.00000000E+00
  0.00000000E+00  0.00000000E+00  0.00000000E+00
  0.00000000E+00  0.00000000E+00  0.00000000E+00
  0.00000000E+00  0.00000000E+00  0.00000000E+00
  0.00000000E+00  0.00000000E+00  0.00000000E+00
