POSCAR 
1.0 
37.242702 0.000000 0.000000 
0.000000 5.110600 0.000000 
0.000000 0.000000 7.531000 
O Ti 
1 80 
Selective Dynamics
Direct 
0.536984 0.338636 0.698449 T T T 
0.383415 0.349427 0.881620 T T T 
0.451600 0.334776 0.241539 T T T 
0.347029 0.766929 0.058360 T T T 
0.460331 0.821592 0.377289 T T T 
0.315105 0.344050 0.230742 T T T 
0.423467 0.249816 0.562961 T T T 
0.195786 0.826266 0.020346 T T T 
0.305928 0.840495 0.376840 T T T 
0.385985 0.847781 0.736538 T T T 
0.175566 0.351381 0.171059 T T T 
0.271212 0.297486 0.546890 T T T 
0.044511 0.821940 0.972295 T T T 
0.152560 0.814954 0.328239 T T T 
0.244965 0.848865 0.708500 T T T 
0.034970 0.320813 0.121073 T T T 
0.120302 0.342771 0.492087 T T T 
0.228490 0.331935 0.857916 T T T 
0.105468 0.850089 0.638130 T T T 
0.075942 0.288754 0.807285 T T T 
0.621789 0.653500 0.365234 T T T 
0.539463 0.701241 0.734687 T T T 
0.654902 0.185633 0.518435 T T T 
0.554064 0.153614 0.903801 T T T 
0.678361 0.653309 0.683033 T T T 
0.578168 0.671611 0.053091 T T T 
0.808332 0.162239 0.475337 T T T 
0.699656 0.170301 0.830147 T T T 
0.606457 0.145684 0.211777 T T T 
0.818018 0.657666 0.622232 T T T 
0.730246 0.670780 0.994705 T T T 
0.962062 0.181017 0.469149 T T T 
0.849462 0.232397 0.795931 T T T 
0.747181 0.154519 0.144534 T T T 
0.959909 0.672045 0.615805 T T T 
0.885803 0.652594 0.971649 T T T 
0.773785 0.705725 0.304901 T T T 
0.888936 0.154216 0.117105 T T T 
0.925892 0.750513 0.292752 T T T 
0.383865 0.654478 0.380943 T T T 
0.451376 0.684182 0.736490 T T T 
0.347006 0.236632 0.557248 T T T 
0.459957 0.185931 0.892224 T T T 
0.315170 0.658902 0.731152 T T T 
0.423717 0.755069 0.060084 T T T 
0.195693 0.179096 0.519748 T T T 
0.305689 0.162077 0.876813 T T T 
0.386499 0.155321 0.236350 T T T 
0.175437 0.652773 0.672860 T T T 
0.271162 0.706860 0.046885 T T T 
0.044207 0.184852 0.471902 T T T 
0.152512 0.187963 0.827683 T T T 
0.244997 0.154037 0.209916 T T T 
0.034886 0.685328 0.621915 T T T 
0.120353 0.663527 0.991974 T T T 
0.228546 0.670522 0.357668 T T T 
0.105500 0.155453 0.139379 T T T 
0.075837 0.716827 0.307383 T T T 
0.627181 0.329102 0.858964 T T T 
0.537728 0.297931 0.227986 T T T 
0.653955 0.819980 0.026409 T T T 
0.544135 0.808830 0.371311 T T T 
0.676631 0.346542 0.173610 T T T 
0.576915 0.259478 0.534229 T T T 
0.807816 0.838833 0.976052 T T T 
0.697887 0.816301 0.331749 T T T 
0.607045 0.835364 0.711004 T T T 
0.817759 0.342485 0.122284 T T T 
0.731227 0.329500 0.492634 T T T 
0.962236 0.816998 0.968218 T T T 
0.849592 0.766002 0.295422 T T T 
0.747886 0.844768 0.642024 T T T 
0.959965 0.325886 0.116484 T T T 
0.885787 0.346862 0.472153 T T T 
0.773776 0.297930 0.805156 T T T 
0.889176 0.845473 0.616888 T T T 
0.925879 0.248715 0.793556 T T T 
0.001529 0.790205 0.283569 T T T 
0.001514 0.212885 0.784123 T T T 
0.497970 0.191405 0.566575 T T T 
0.500782 0.777029 0.056718 T T T 
