POSCAR 
1.0 
5.110600 0.000000 0.000000 
0.000000 9.811800 0.000000 
0.000000 0.000000 28.520199 
Ti 
80 
Selective Dynamics
Direct 
0.249542 0.388169 0.022351 T T T 
0.750458 0.388169 0.977649 T T T 
0.749542 0.888169 0.022351 T T T 
0.250458 0.888169 0.977649 T T T 
0.706510 0.443841 0.076023 T T T 
0.293490 0.443841 0.923977 T T T 
0.206510 0.943841 0.076023 T T T 
0.793490 0.943841 0.923977 T T T 
0.717770 0.992167 0.125321 T T T 
0.282230 0.992167 0.874680 T T T 
0.217770 0.492167 0.125321 T T T 
0.782230 0.492167 0.874680 T T T 
0.213049 0.036185 0.174423 T T T 
0.786951 0.036185 0.825577 T T T 
0.713049 0.536185 0.174423 T T T 
0.286951 0.536185 0.825577 T T T 
0.712081 0.081185 0.225183 T T T 
0.287919 0.081185 0.774817 T T T 
0.212081 0.581185 0.225183 T T T 
0.787919 0.581185 0.774817 T T T 
0.212293 0.127508 0.274874 T T T 
0.787707 0.127508 0.725126 T T T 
0.712293 0.627508 0.274874 T T T 
0.287707 0.627508 0.725126 T T T 
0.713300 0.172452 0.325584 T T T 
0.286700 0.172452 0.674416 T T T 
0.213300 0.672453 0.325584 T T T 
0.786700 0.672453 0.674416 T T T 
0.218044 0.216379 0.374727 T T T 
0.781955 0.216379 0.625273 T T T 
0.718044 0.716379 0.374727 T T T 
0.281956 0.716379 0.625273 T T T 
0.707041 0.264638 0.423997 T T T 
0.292959 0.264638 0.576003 T T T 
0.207041 0.764638 0.423997 T T T 
0.792959 0.764638 0.576003 T T T 
0.249576 0.320243 0.470598 T T T 
0.750424 0.320243 0.529402 T T T 
0.749576 0.820243 0.470598 T T T 
0.250424 0.820243 0.529402 T T T 
0.537252 0.163988 0.049929 T T T 
0.462748 0.163988 0.950072 T T T 
0.037252 0.663988 0.049929 T T T 
0.962748 0.663988 0.950072 T T T 
0.046002 0.222717 0.099244 T T T 
0.953998 0.222717 0.900756 T T T 
0.546002 0.722717 0.099244 T T T 
0.453998 0.722717 0.900756 T T T 
0.543764 0.263423 0.149871 T T T 
0.456236 0.263423 0.850129 T T T 
0.043764 0.763423 0.149871 T T T 
0.956236 0.763423 0.850129 T T T 
0.044942 0.308663 0.199656 T T T 
0.955058 0.308663 0.800344 T T T 
0.544942 0.808663 0.199656 T T T 
0.455058 0.808663 0.800344 T T T 
0.547464 0.354400 0.250023 T T T 
0.452536 0.354400 0.749977 T T T 
0.047464 0.854400 0.250023 T T T 
0.952536 0.854400 0.749977 T T T 
0.045081 0.399992 0.300407 T T T 
0.954919 0.399992 0.699593 T T T 
0.545081 0.899992 0.300407 T T T 
0.454919 0.899992 0.699593 T T T 
0.543961 0.445145 0.350169 T T T 
0.456039 0.445145 0.649831 T T T 
0.043961 0.945145 0.350169 T T T 
0.956039 0.945145 0.649831 T T T 
0.546280 0.985884 0.400756 T T T 
0.453720 0.985884 0.599244 T T T 
0.046280 0.485884 0.400756 T T T 
0.953720 0.485884 0.599244 T T T 
0.037526 0.044383 0.450080 T T T 
0.962474 0.044383 0.549920 T T T 
0.537526 0.544383 0.450080 T T T 
0.462474 0.544383 0.549920 T T T 
0.000000 0.130813 0.000000 T T T 
0.500000 0.630813 0.000000 T T T 
0.500000 0.077673 0.500000 T T T 
0.000000 0.577673 0.500000 T T T 
