POSCAR                                  
   1.00000000000000     
    36.9426994299999976    0.0000000000000000    0.0000000000000000
     0.0000000000000000    5.1105999899999999    0.0000000000000000
     0.0000000000000000    0.0000000000000000    7.5310001399999997
   Ti
    80
Selective dynamics
Direct
  0.3806883825285685  0.3457876912208328  0.8726948928263472   T   T   T
  0.3806883825285685  0.6542123087791807  0.3726948928263455   T   T   T
  0.4603540165387383  0.3189711440706053  0.2313188325380627   T   T   T
  0.4603540165387383  0.6810288559294000  0.7313188325380663   T   T   T
  0.3458907071413380  0.7848761173670149  0.0449688634662227   T   T   T
  0.3458907071413380  0.2151238845896923  0.5449688634662321   T   T   T
  0.4572955165843539  0.8170276955390434  0.3801100742155392   T   T   T
  0.4572955165843539  0.1829723064176667  0.8801100742155465   T   T   T
  0.3178858244200474  0.3456455049664038  0.2111285069013543   T   T   T
  0.3178858244200474  0.6543544950335868  0.7111285069013531   T   T   T
  0.4230294209043001  0.2620514192403165  0.5529124751289324   T   T   T
  0.4230294209043001  0.7379485807596844  0.0529124764567820   T   T   T
  0.1929972252910851  0.8341636579622763  0.9938440176424599   T   T   T
  0.1929972252910851  0.1658363439944343  0.4938440176424642   T   T   T
  0.3032013289752422  0.8336978224390471  0.3585913157881804   T   T   T
  0.3032013289752422  0.1663021795176678  0.8585913157881851   T   T   T
  0.3885868018622444  0.8460846896565755  0.7274653000687810   T   T   T
  0.3885868018622444  0.1539153123001446  0.2274653000687859   T   T   T
  0.1786754523392267  0.3453786036264034  0.1411359465293222   T   T   T
  0.1786754523392267  0.6546213963735793  0.6411359452014683   T   T   T
  0.2697354218758774  0.3184676178990688  0.5222438820119109   T   T   T
  0.2697354218758774  0.6815323821009296  0.0222438820119117   T   T   T
  0.0387166475414799  0.8171026190207036  0.9736551482361050   T   T   T
  0.0387166475414799  0.1828973829360107  0.4736551482361073   T   T   T
  0.1503547871612509  0.7832433084955241  0.3079249515845642   T   T   T
  0.1503547871612509  0.2167566934611885  0.8079249515845698   T   T   T
  0.2483210535716956  0.8506596519698886  0.6757630778883058   T   T   T
  0.2483210535716956  0.1493403499868278  0.1757630778883000   T   T   T
  0.0361389991724215  0.3195028848952585  0.1222868306583976   T   T   T
  0.0361389991724215  0.6804971151047330  0.6222868306584151   T   T   T
  0.1154369660712582  0.3460523231861066  0.4806376717771808   T   T   T
  0.1154369660712582  0.6539476768138929  0.9806376717771774   T   T   T
  0.2265412117137886  0.3170894464100520  0.8298324438833969   T   T   T
  0.2265412117137886  0.6829105535899516  0.3298324452112368   T   T   T
  0.1079377866879825  0.8460107355689820  0.6257826420830436   T   T   T
  0.1079377866879825  0.1539892663877343  0.1257826420830427   T   T   T
  0.0732248484844392  0.2607846294577947  0.8004354001965654   T   T   T
  0.0732248484844392  0.7392153705422021  0.3004354001965658   T   T   T
  0.6154146639225172  0.6539353110025925  0.3730127938599350   T   T   T
  0.6154146639225172  0.3460646889974051  0.8730127938599332   T   T   T
  0.5361165846915253  0.6804759140467004  0.7314980317260495   T   T   T
  0.5361165846915253  0.3195240859533027  0.2314980317260365   T   T   T
  0.6503231923397034  0.2165548213920526  0.5455924515707012   T   T   T
  0.6503231923397034  0.7834451786079529  0.0455924515707012   T   T   T
  0.5387020134758617  0.1828987283163915  0.8801549108303168   T   T   T
  0.5387020134758617  0.8171012716836104  0.3801549108303153   T   T   T
  0.6786010068001390  0.6545805589990882  0.7122606191618036   T   T   T
  0.6786010068001390  0.3454194410009077  0.2122606204896420   T   T   T
  0.5732010532249262  0.7391410034847750  0.0532625572690574   T   T   T
  0.5732010532249262  0.2608589965152264  0.5532625572690684   T   T   T
  0.8031764183072465  0.1662712087258326  0.4947911692993802   T   T   T
  0.8031764183072465  0.8337287912741701  0.9947911692993746   T   T   T
  0.6929684521609574  0.1658764892689286  0.8595512902970147   T   T   T
  0.6929684521609574  0.8341235107310760  0.3595512902970119   T   T   T
  0.6078864113425503  0.1539553708383863  0.2278849959362571   T   T   T
  0.6078864113425503  0.8460446291616074  0.7278849959362585   T   T   T
  0.8178169316864965  0.6544141804388777  0.6422442817254876   T   T   T
  0.8178169316864965  0.3455858195611284  0.1422442817254971   T   T   T
  0.7265026366518229  0.6826985165988836  0.0234740137782029   T   T   T
  0.7265026366518229  0.3173014834011222  0.5234740124503617   T   T   T
  0.9573021947134660  0.1829769615463596  0.4737045382716926   T   T   T
  0.9573021947134660  0.8170230384536384  0.9737045382716973   T   T   T
  0.8458662207017681  0.2153431343757230  0.8085466235043510   T   T   T
  0.8458662207017681  0.7846568656242722  0.3085466235043494   T   T   T
  0.7482350229029580  0.1493182610533974  0.1774498856137618   T   T   T
  0.7482350229029580  0.8506817389465983  0.6774498856137536   T   T   T
  0.9603385013182325  0.6810391254101708  0.6224628962148802   T   T   T
  0.9603385013182325  0.3189608745898339  0.1224628962148838   T   T   T
  0.8806808170716522  0.6541954532498289  0.9809493187809787   T   T   T
  0.8806808170716522  0.3458045467501700  0.4809493187809769   T   T   T
  0.7697017244727912  0.6817062493924400  0.3310450139367623   T   T   T
  0.7697017244727912  0.3182937506075628  0.8310450139367748   T   T   T
  0.8885392394839037  0.1539436530348981  0.1261864078891377   T   T   T
  0.8885392394839037  0.8460563469650955  0.6261864078891366   T   T   T
  0.9230190199228188  0.7380612807222735  0.3007835372763577   T   T   T
  0.9230190199228188  0.2619387192777257  0.8007835372763668   T   T   T
  0.9980869278365628  0.7818939444326878  0.2892752031654186   T   T   T
  0.9980869278365628  0.2181060575240237  0.7892752031654150   T   T   T
  0.4980785438414787  0.2180364185586826  0.5645771360094486   T   T   T
  0.4980785438414787  0.7819635814413232  0.0645771360094518   T   T   T
 
  0.00000000E+00  0.00000000E+00  0.00000000E+00
  0.00000000E+00  0.00000000E+00  0.00000000E+00
  0.00000000E+00  0.00000000E+00  0.00000000E+00
  0.00000000E+00  0.00000000E+00  0.00000000E+00
  0.00000000E+00  0.00000000E+00  0.00000000E+00
  0.00000000E+00  0.00000000E+00  0.00000000E+00
  0.00000000E+00  0.00000000E+00  0.00000000E+00
  0.00000000E+00  0.00000000E+00  0.00000000E+00
  0.00000000E+00  0.00000000E+00  0.00000000E+00
  0.00000000E+00  0.00000000E+00  0.00000000E+00
  0.00000000E+00  0.00000000E+00  0.00000000E+00
  0.00000000E+00  0.00000000E+00  0.00000000E+00
  0.00000000E+00  0.00000000E+00  0.00000000E+00
  0.00000000E+00  0.00000000E+00  0.00000000E+00
  0.00000000E+00  0.00000000E+00  0.00000000E+00
  0.00000000E+00  0.00000000E+00  0.00000000E+00
  0.00000000E+00  0.00000000E+00  0.00000000E+00
  0.00000000E+00  0.00000000E+00  0.00000000E+00
  0.00000000E+00  0.00000000E+00  0.00000000E+00
  0.00000000E+00  0.00000000E+00  0.00000000E+00
  0.00000000E+00  0.00000000E+00  0.00000000E+00
  0.00000000E+00  0.00000000E+00  0.00000000E+00
  0.00000000E+00  0.00000000E+00  0.00000000E+00
  0.00000000E+00  0.00000000E+00  0.00000000E+00
  0.00000000E+00  0.00000000E+00  0.00000000E+00
  0.00000000E+00  0.00000000E+00  0.00000000E+00
  0.00000000E+00  0.00000000E+00  0.00000000E+00
  0.00000000E+00  0.00000000E+00  0.00000000E+00
  0.00000000E+00  0.00000000E+00  0.00000000E+00
  0.00000000E+00  0.00000000E+00  0.00000000E+00
  0.00000000E+00  0.00000000E+00  0.00000000E+00
  0.00000000E+00  0.00000000E+00  0.00000000E+00
  0.00000000E+00  0.00000000E+00  0.00000000E+00
  0.00000000E+00  0.00000000E+00  0.00000000E+00
  0.00000000E+00  0.00000000E+00  0.00000000E+00
  0.00000000E+00  0.00000000E+00  0.00000000E+00
  0.00000000E+00  0.00000000E+00  0.00000000E+00
  0.00000000E+00  0.00000000E+00  0.00000000E+00
  0.00000000E+00  0.00000000E+00  0.00000000E+00
  0.00000000E+00  0.00000000E+00  0.00000000E+00
  0.00000000E+00  0.00000000E+00  0.00000000E+00
  0.00000000E+00  0.00000000E+00  0.00000000E+00
  0.00000000E+00  0.00000000E+00  0.00000000E+00
  0.00000000E+00  0.00000000E+00  0.00000000E+00
  0.00000000E+00  0.00000000E+00  0.00000000E+00
  0.00000000E+00  0.00000000E+00  0.00000000E+00
  0.00000000E+00  0.00000000E+00  0.00000000E+00
  0.00000000E+00  0.00000000E+00  0.00000000E+00
  0.00000000E+00  0.00000000E+00  0.00000000E+00
  0.00000000E+00  0.00000000E+00  0.00000000E+00
  0.00000000E+00  0.00000000E+00  0.00000000E+00
  0.00000000E+00  0.00000000E+00  0.00000000E+00
  0.00000000E+00  0.00000000E+00  0.00000000E+00
  0.00000000E+00  0.00000000E+00  0.00000000E+00
  0.00000000E+00  0.00000000E+00  0.00000000E+00
  0.00000000E+00  0.00000000E+00  0.00000000E+00
  0.00000000E+00  0.00000000E+00  0.00000000E+00
  0.00000000E+00  0.00000000E+00  0.00000000E+00
  0.00000000E+00  0.00000000E+00  0.00000000E+00
  0.00000000E+00  0.00000000E+00  0.00000000E+00
  0.00000000E+00  0.00000000E+00  0.00000000E+00
  0.00000000E+00  0.00000000E+00  0.00000000E+00
  0.00000000E+00  0.00000000E+00  0.00000000E+00
  0.00000000E+00  0.00000000E+00  0.00000000E+00
  0.00000000E+00  0.00000000E+00  0.00000000E+00
  0.00000000E+00  0.00000000E+00  0.00000000E+00
  0.00000000E+00  0.00000000E+00  0.00000000E+00
  0.00000000E+00  0.00000000E+00  0.00000000E+00
  0.00000000E+00  0.00000000E+00  0.00000000E+00
  0.00000000E+00  0.00000000E+00  0.00000000E+00
  0.00000000E+00  0.00000000E+00  0.00000000E+00
  0.00000000E+00  0.00000000E+00  0.00000000E+00
  0.00000000E+00  0.00000000E+00  0.00000000E+00
  0.00000000E+00  0.00000000E+00  0.00000000E+00
  0.00000000E+00  0.00000000E+00  0.00000000E+00
  0.00000000E+00  0.00000000E+00  0.00000000E+00
  0.00000000E+00  0.00000000E+00  0.00000000E+00
  0.00000000E+00  0.00000000E+00  0.00000000E+00
  0.00000000E+00  0.00000000E+00  0.00000000E+00
  0.00000000E+00  0.00000000E+00  0.00000000E+00
