POSCAR                                  
   1.00000000000000     
     5.1105999899999999    0.0000000000000000    0.0000000000000000
     0.0000000000000000    9.8117999999999999    0.0000000000000000
     0.0000000000000000    0.0000000000000000   28.1201991999999983
   Ti
    80
Selective dynamics
Direct
  0.2495418727988579  0.3881690123695094  0.0223513636979220   T   T   T
  0.7504581272012132  0.3881690123695094  0.9776486359463448   T   T   T
  0.7495418718204263  0.8881690123694526  0.0223513636979220   T   T   T
  0.2504581262227887  0.8881690123694526  0.9776486359463448   T   T   T
  0.7065104500862631  0.4438406541357693  0.0760227948845511   T   T   T
  0.2934895499135948  0.4438406541357693  0.9239772047597370   T   T   T
  0.2065104491080021  0.9438406541356912  0.0760227948845511   T   T   T
  0.7934895489353764  0.9438406541356912  0.9239772047597370   T   T   T
  0.7177697859572234  0.9921673027425015  0.1253205123526868   T   T   T
  0.2822302140428121  0.9921673027425015  0.8746794876473771   T   T   T
  0.2177697849787847  0.4921673027425086  0.1253205123526868   T   T   T
  0.7822302130644161  0.4921673027425086  0.8746794876473771   T   T   T
  0.2130487878168523  0.0361852415649295  0.1744234438342502   T   T   T
  0.7869512121830340  0.0361852415649295  0.8255765558101942   T   T   T
  0.7130487868386055  0.5361852415649508  0.1744234438342502   T   T   T
  0.2869512112047303  0.5361852415649508  0.8255765558101942   T   T   T
  0.7120811167112464  0.0811852021009685  0.2251832915169913   T   T   T
  0.2879188813320539  0.0811852021009685  0.7748167081273039   T   T   T
  0.2120811176895430  0.5811852021010040  0.2251832915169913   T   T   T
  0.7879188823103931  0.5811852021010040  0.7748167081273039   T   T   T
  0.2122933446010151  0.1275077118413392  0.2748739505097006   T   T   T
  0.7877066553989778  0.1275077118413392  0.7251260494902780   T   T   T
  0.7122933455793827  0.6275077128605417  0.2748739505097006   T   T   T
  0.2877066544206031  0.6275077128605417  0.7251260494902780   T   T   T
  0.7133001105484666  0.1724524874116256  0.3255837375378121   T   T   T
  0.2866998894515902  0.1724524874116256  0.6744162621066749   T   T   T
  0.2133001095700209  0.6724524874116469  0.3255837375378121   T   T   T
  0.7866998884731728  0.6724524874116469  0.6744162621066749   T   T   T
  0.2180444883378527  0.2163789678580414  0.3747271159993346   T   T   T
  0.7819555097055115  0.2163789678580414  0.6252728840006583   T   T   T
  0.7180444893161280  0.7163789678581551  0.3747271159993346   T   T   T
  0.2819555087271084  0.7163789678581551  0.6252728840006583   T   T   T
  0.7070413832072902  0.2646376767815894  0.4239973174703522   T   T   T
  0.2929586148360244  0.2646376767815894  0.5760026821740567   T   T   T
  0.2070413841856151  0.7646376767815326  0.4239973174703522   T   T   T
  0.7929586158143564  0.7646376767815326  0.5760026821740567   T   T   T
  0.2495763658375694  0.3202431439282591  0.4776105782350157   T   T   T
  0.7504236322057238  0.3202431439282591  0.5223894214093505   T   T   T
  0.7495763668159228  0.8202431439284297  0.4776105782350086   T   T   T
  0.2504236331840346  0.8202431439284155  0.5223894214093505   T   T   T
  0.5372516285515445  0.1639877032033468  0.0499285090074224   T   T   T
  0.4627483694917345  0.1639877032033468  0.9500714906369154   T   T   T
  0.0372516275731343  0.6639877032033681  0.0499285090074224   T   T   T
  0.9627483704701021  0.6639877032033681  0.9500714906369154   T   T   T
  0.0460018466629037  0.2227171698128245  0.0992439978109516   T   T   T
  0.9539981533371744  0.2227171698128245  0.9007560018334715   T   T   T
  0.5460018476411790  0.7227171708319702  0.0992439978109516   T   T   T
  0.4539981523587500  0.7227171708319702  0.9007560018334715   T   T   T
  0.5437636021006682  0.2634225619969683  0.1498710819592404   T   T   T
  0.4562363978992465  0.2634225619969683  0.8501289176852893   T   T   T
  0.0437636011223930  0.7634225619968760  0.1498710819592404   T   T   T
  0.9562363988776923  0.7634225619968760  0.8501289176852893   T   T   T
  0.0449416724579521  0.3086630188192885  0.1996556583930058   T   T   T
  0.9550583255853411  0.3086630188192885  0.8003443412514670   T   T   T
  0.5449416734363055  0.8086630188194661  0.1996556583930058   T   T   T
  0.4550583265636803  0.8086630188194661  0.8003443412514670   T   T   T
  0.5474642858951810  0.3544003637450643  0.2500227090633871   T   T   T
  0.4525357121481264  0.3544003637450643  0.7499772905809365   T   T   T
  0.0474642868735060  0.8544003647642171  0.2500227090633871   T   T   T
  0.9525357131264585  0.8544003647642171  0.7499772905809365   T   T   T
  0.0450812579070146  0.3999919612179852  0.3004070100991427   T   T   T
  0.9549187401361934  0.3999919612179852  0.6995929899009141   T   T   T
  0.5450812588854532  0.8999919612178857  0.3004070100991427   T   T   T
  0.4549187391579181  0.8999919612178857  0.6995929899009141   T   T   T
  0.5439614688805037  0.4451451751176876  0.3501685263380026   T   T   T
  0.4560385291627895  0.4451451751176876  0.6498314733063495   T   T   T
  0.0439614698588571  0.9451451761367693  0.3501685263380026   T   T   T
  0.9560385301411429  0.9451451761367693  0.6498314733063495   T   T   T
  0.5462800447087588  0.9858841021064393  0.4007561471377983   T   T   T
  0.4537199533345699  0.9858841021064393  0.5992438528621449   T   T   T
  0.0462800437303841  0.4858841021064322  0.4007561471377983   T   T   T
  0.9537199543128807  0.4858841021064322  0.5992438528621449   T   T   T
  0.0375262575375146  0.0443825206932900  0.4500794965991659   T   T   T
  0.9624737424625138  0.0443825206932900  0.5499205030453069   T   T   T
  0.5375262565591257  0.5443825206933255  0.4500794965991659   T   T   T
  0.4624737414841533  0.5443825206933255  0.5499205030453069   T   T   T
  0.0000000000000000  0.1308130129262537  0.0000000000000000   T   T   T
  0.4999999990216395  0.6308130129263461  0.0000000000000000   T   T   T
  0.4999999990216395  0.0776729905965396  0.5000000000000000   T   T   T
  0.0000000000000000  0.5776729916157777  0.5000000000000000   T   T   T
 
  0.00000000E+00  0.00000000E+00  0.00000000E+00
  0.00000000E+00  0.00000000E+00  0.00000000E+00
  0.00000000E+00  0.00000000E+00  0.00000000E+00
  0.00000000E+00  0.00000000E+00  0.00000000E+00
  0.00000000E+00  0.00000000E+00  0.00000000E+00
  0.00000000E+00  0.00000000E+00  0.00000000E+00
  0.00000000E+00  0.00000000E+00  0.00000000E+00
  0.00000000E+00  0.00000000E+00  0.00000000E+00
  0.00000000E+00  0.00000000E+00  0.00000000E+00
  0.00000000E+00  0.00000000E+00  0.00000000E+00
  0.00000000E+00  0.00000000E+00  0.00000000E+00
  0.00000000E+00  0.00000000E+00  0.00000000E+00
  0.00000000E+00  0.00000000E+00  0.00000000E+00
  0.00000000E+00  0.00000000E+00  0.00000000E+00
  0.00000000E+00  0.00000000E+00  0.00000000E+00
  0.00000000E+00  0.00000000E+00  0.00000000E+00
  0.00000000E+00  0.00000000E+00  0.00000000E+00
  0.00000000E+00  0.00000000E+00  0.00000000E+00
  0.00000000E+00  0.00000000E+00  0.00000000E+00
  0.00000000E+00  0.00000000E+00  0.00000000E+00
  0.00000000E+00  0.00000000E+00  0.00000000E+00
  0.00000000E+00  0.00000000E+00  0.00000000E+00
  0.00000000E+00  0.00000000E+00  0.00000000E+00
  0.00000000E+00  0.00000000E+00  0.00000000E+00
  0.00000000E+00  0.00000000E+00  0.00000000E+00
  0.00000000E+00  0.00000000E+00  0.00000000E+00
  0.00000000E+00  0.00000000E+00  0.00000000E+00
  0.00000000E+00  0.00000000E+00  0.00000000E+00
  0.00000000E+00  0.00000000E+00  0.00000000E+00
  0.00000000E+00  0.00000000E+00  0.00000000E+00
  0.00000000E+00  0.00000000E+00  0.00000000E+00
  0.00000000E+00  0.00000000E+00  0.00000000E+00
  0.00000000E+00  0.00000000E+00  0.00000000E+00
  0.00000000E+00  0.00000000E+00  0.00000000E+00
  0.00000000E+00  0.00000000E+00  0.00000000E+00
  0.00000000E+00  0.00000000E+00  0.00000000E+00
  0.00000000E+00  0.00000000E+00  0.00000000E+00
  0.00000000E+00  0.00000000E+00  0.00000000E+00
  0.00000000E+00  0.00000000E+00  0.00000000E+00
  0.00000000E+00  0.00000000E+00  0.00000000E+00
  0.00000000E+00  0.00000000E+00  0.00000000E+00
  0.00000000E+00  0.00000000E+00  0.00000000E+00
  0.00000000E+00  0.00000000E+00  0.00000000E+00
  0.00000000E+00  0.00000000E+00  0.00000000E+00
  0.00000000E+00  0.00000000E+00  0.00000000E+00
  0.00000000E+00  0.00000000E+00  0.00000000E+00
  0.00000000E+00  0.00000000E+00  0.00000000E+00
  0.00000000E+00  0.00000000E+00  0.00000000E+00
  0.00000000E+00  0.00000000E+00  0.00000000E+00
  0.00000000E+00  0.00000000E+00  0.00000000E+00
  0.00000000E+00  0.00000000E+00  0.00000000E+00
  0.00000000E+00  0.00000000E+00  0.00000000E+00
  0.00000000E+00  0.00000000E+00  0.00000000E+00
  0.00000000E+00  0.00000000E+00  0.00000000E+00
  0.00000000E+00  0.00000000E+00  0.00000000E+00
  0.00000000E+00  0.00000000E+00  0.00000000E+00
  0.00000000E+00  0.00000000E+00  0.00000000E+00
  0.00000000E+00  0.00000000E+00  0.00000000E+00
  0.00000000E+00  0.00000000E+00  0.00000000E+00
  0.00000000E+00  0.00000000E+00  0.00000000E+00
  0.00000000E+00  0.00000000E+00  0.00000000E+00
  0.00000000E+00  0.00000000E+00  0.00000000E+00
  0.00000000E+00  0.00000000E+00  0.00000000E+00
  0.00000000E+00  0.00000000E+00  0.00000000E+00
  0.00000000E+00  0.00000000E+00  0.00000000E+00
  0.00000000E+00  0.00000000E+00  0.00000000E+00
  0.00000000E+00  0.00000000E+00  0.00000000E+00
  0.00000000E+00  0.00000000E+00  0.00000000E+00
  0.00000000E+00  0.00000000E+00  0.00000000E+00
  0.00000000E+00  0.00000000E+00  0.00000000E+00
  0.00000000E+00  0.00000000E+00  0.00000000E+00
  0.00000000E+00  0.00000000E+00  0.00000000E+00
  0.00000000E+00  0.00000000E+00  0.00000000E+00
  0.00000000E+00  0.00000000E+00  0.00000000E+00
  0.00000000E+00  0.00000000E+00  0.00000000E+00
  0.00000000E+00  0.00000000E+00  0.00000000E+00
  0.00000000E+00  0.00000000E+00  0.00000000E+00
  0.00000000E+00  0.00000000E+00  0.00000000E+00
  0.00000000E+00  0.00000000E+00  0.00000000E+00
  0.00000000E+00  0.00000000E+00  0.00000000E+00
