POSCAR                                  
   1.00000000000000     
     2.9506000000000001    0.0000000000000000    0.0000000000000000
     0.0000000000000000   51.1058999999999983    0.0000000000000000
     0.0000000000000000    0.0000000000000000    9.3575999999999997
   O    Ti
     1    80
Selective dynamics
Direct
  0.4993323873557535  0.5500017007411911  0.4999893784646764   T   T   T
  0.0000045827512810  0.0333345615989142  0.1249605554254658   T   T   T
  0.5000031943157794  0.0833483506002992  0.1250442651457075   T   T   T
  0.5000034986490363  0.0166612367961576  0.3748910007209221   T   T   T
  0.0000047035887107  0.0666704426551982  0.3749807014777130   T   T   T
  0.0000048271133919  0.0333312652523237  0.6250167014292166   T   T   T
  0.5000033395885054  0.0833407940096275  0.6251071928970172   T   T   T
  0.5000032858887330  0.0166534228779040  0.8749550864034968   T   T   T
  0.0000045575901622  0.0666670782801121  0.8750379364495093   T   T   T
  0.0000039456692134  0.1333390673101359  0.1249753936269660   T   T   T
  0.5000038062514451  0.1833115953483021  0.1250281155034217   T   T   T
  0.5000039803435867  0.1166714055443039  0.3749677438204942   T   T   T
  0.0000050040106063  0.1666589315109499  0.3749970488066601   T   T   T
  0.0000041164558478  0.1333359465846655  0.6250221775742459   T   T   T
  0.5000040005819841  0.1833128036416490  0.6250423359692824   T   T   T
  0.5000039714860518  0.1166736870014666  0.8750000289601356   T   T   T
  0.0000051217904221  0.1666566253727959  0.8750063119598200   T   T   T
 -0.0000042706145137  0.2332755156483488  0.1249887383825071   T   T   T
  0.5000001741209708  0.2832020829405871  0.1250060647625532   T   T   T
  0.4999948299524980  0.2166563778022600  0.3749937899266884   T   T   T
 -0.0000166025739615  0.2666340990281067  0.3749607197454268   T   T   T
 -0.0000041249259213  0.2332948359643961  0.6249409783931821   T   T   T
  0.4999928233124737  0.2832344212007866  0.6248149118886753   T   T   T
  0.4999951040996657  0.2166530237010133  0.8749493484042458   T   T   T
 -0.0000147346488117  0.2666115106913708  0.8748811691831274   T   T   T
  0.0000079714864605  0.3330577816013129  0.1251353379246654   T   T   T
  0.4999366156272219  0.3829525406344300  0.1251564908439898   T   T   T
  0.4999513514086831  0.3165700277977987  0.3750620874507198   T   T   T
 -0.0001229177935924  0.3665357865342548  0.3752254841722892   T   T   T
 -0.0000363771275536  0.3331667993695870  0.6248206270227854   T   T   T
  0.4998908929493530  0.3831202225260847  0.6249844656347664   T   T   T
  0.4999644138695176  0.3164892090035551  0.8749186658733548   T   T   T
 -0.0000864600306010  0.3663407023950628  0.8752056045445924   T   T   T
 -0.0003617021337623  0.4328260924953131  0.1250944027502398   T   T   T
  0.4992988344862823  0.4828250574966667  0.1257886398591124   T   T   T
  0.4997547178656409  0.4165051390733706  0.3747285751054875   T   T   T
 -0.0003718679028754  0.4664039762832711  0.3747030020162219   T   T   T
 -0.0002247370465679  0.4330107646459039  0.6253851349989977   T   T   T
  0.4996214187809403  0.4827719273435511  0.6291766991869914   T   T   T
  0.4997304501979775  0.4161515346503100  0.8750599780216670   T   T   T
 -0.0006206414847680  0.4659663334668187  0.8766909413223287   T   T   T
 -0.0004671434855108  0.5332875113291397  0.1251729995350415   T   T   T
  0.4993798352521206  0.5842872957741739  0.1257874678904942   T   T   T
  0.4995433692682238  0.5165103941312772  0.3679443169495786   T   T   T
 -0.0005635561325741  0.5668258108696116  0.3698411768087353   T   T   T
 -0.0005557142784639  0.5331782979780519  0.6301114078635256   T   T   T
  0.4995675870731387  0.5834907137235735  0.6320282840054962   T   T   T
  0.4993860500141082  0.5157208665103873  0.8741690112089445   T   T   T
 -0.0004626832978012  0.5667178367111997  0.8748064557094883   T   T   T
 -0.0005904141913623  0.6340381311628117  0.1232894012723620   T   T   T
  0.4997253966279879  0.6838521290387780  0.1249257471189171   T   T   T
  0.4996010539389552  0.6172282421753890  0.3707992376367829   T   T   T
 -0.0002272551820100  0.6669880167622685  0.3746025089761729   T   T   T
 -0.0003900455241322  0.6335991521700427  0.6252664308150691   T   T   T
  0.4997473083409581  0.6834977135856726  0.6252415878129478   T   T   T
  0.4992973302435472  0.6171811544107239  0.8741838470003986   T   T   T
 -0.0003779509184903  0.6671784309464317  0.8748702544031834   T   T   T
 -0.0000951437079919  0.7336629383782285  0.1247904965516914   T   T   T
  0.4999609567837167  0.7835161003215522  0.1250784821969472   T   T   T
  0.4998908464851616  0.7168829751714497  0.3750054382146519   T   T   T
 -0.0000378583696958  0.7668392805613617  0.3751733501710339   T   T   T
 -0.0001278122767071  0.7334705228131099  0.6247669669529379   T   T   T
  0.4999487145969954  0.7834370935015357  0.6249378655133608   T   T   T
  0.4999330606255149  0.7170507821307582  0.8748368960845149   T   T   T
  0.0000090440380688  0.7669473233306165  0.8748676035261785   T   T   T
 -0.0000153196933797  0.8333937277900978  0.1251173027510880   T   T   T
  0.4999947432974076  0.8833510534067823  0.1250506522253132   T   T   T
  0.4999925793276224  0.8167722814606683  0.3751819788393418   T   T   T
 -0.0000046195756039  0.8667114172060683  0.3750572565518595   T   T   T
 -0.0000171820827420  0.8333719789977301  0.6250393301051018   T   T   T
  0.4999944910932771  0.8833481856954756  0.6250053500334085   T   T   T
  0.5000002722493260  0.8168037926262885  0.8749948428750566   T   T   T
 -0.0000048691491298  0.8667300346393255  0.8750110302144872   T   T   T
  0.0000055963257489  0.9333457357877256  0.1249916152184205   T   T   T
  0.5000044660601026  0.9833278965988952  0.1249987555856031   T   T   T
  0.5000042194771435  0.9166915216033850  0.3749561067817805   T   T   T
  0.0000046472802673  0.9666667688886187  0.3749764066347077   T   T   T
  0.0000055050262632  0.9333435894453617  0.6250002644163021   T   T   T
  0.5000045161142124  0.9833301229055941  0.6250304118768358   T   T   T
  0.5000040200252680  0.9166922267142446  0.8749698030108310   T   T   T
  0.0000044729951930  0.9666632753254344  0.8750238266120380   T   T   T
 
  0.00000000E+00  0.00000000E+00  0.00000000E+00
  0.00000000E+00  0.00000000E+00  0.00000000E+00
  0.00000000E+00  0.00000000E+00  0.00000000E+00
  0.00000000E+00  0.00000000E+00  0.00000000E+00
  0.00000000E+00  0.00000000E+00  0.00000000E+00
  0.00000000E+00  0.00000000E+00  0.00000000E+00
  0.00000000E+00  0.00000000E+00  0.00000000E+00
  0.00000000E+00  0.00000000E+00  0.00000000E+00
  0.00000000E+00  0.00000000E+00  0.00000000E+00
  0.00000000E+00  0.00000000E+00  0.00000000E+00
  0.00000000E+00  0.00000000E+00  0.00000000E+00
  0.00000000E+00  0.00000000E+00  0.00000000E+00
  0.00000000E+00  0.00000000E+00  0.00000000E+00
  0.00000000E+00  0.00000000E+00  0.00000000E+00
  0.00000000E+00  0.00000000E+00  0.00000000E+00
  0.00000000E+00  0.00000000E+00  0.00000000E+00
  0.00000000E+00  0.00000000E+00  0.00000000E+00
  0.00000000E+00  0.00000000E+00  0.00000000E+00
  0.00000000E+00  0.00000000E+00  0.00000000E+00
  0.00000000E+00  0.00000000E+00  0.00000000E+00
  0.00000000E+00  0.00000000E+00  0.00000000E+00
  0.00000000E+00  0.00000000E+00  0.00000000E+00
  0.00000000E+00  0.00000000E+00  0.00000000E+00
  0.00000000E+00  0.00000000E+00  0.00000000E+00
  0.00000000E+00  0.00000000E+00  0.00000000E+00
  0.00000000E+00  0.00000000E+00  0.00000000E+00
  0.00000000E+00  0.00000000E+00  0.00000000E+00
  0.00000000E+00  0.00000000E+00  0.00000000E+00
  0.00000000E+00  0.00000000E+00  0.00000000E+00
  0.00000000E+00  0.00000000E+00  0.00000000E+00
  0.00000000E+00  0.00000000E+00  0.00000000E+00
  0.00000000E+00  0.00000000E+00  0.00000000E+00
  0.00000000E+00  0.00000000E+00  0.00000000E+00
  0.00000000E+00  0.00000000E+00  0.00000000E+00
  0.00000000E+00  0.00000000E+00  0.00000000E+00
  0.00000000E+00  0.00000000E+00  0.00000000E+00
  0.00000000E+00  0.00000000E+00  0.00000000E+00
  0.00000000E+00  0.00000000E+00  0.00000000E+00
  0.00000000E+00  0.00000000E+00  0.00000000E+00
  0.00000000E+00  0.00000000E+00  0.00000000E+00
  0.00000000E+00  0.00000000E+00  0.00000000E+00
  0.00000000E+00  0.00000000E+00  0.00000000E+00
  0.00000000E+00  0.00000000E+00  0.00000000E+00
  0.00000000E+00  0.00000000E+00  0.00000000E+00
  0.00000000E+00  0.00000000E+00  0.00000000E+00
  0.00000000E+00  0.00000000E+00  0.00000000E+00
  0.00000000E+00  0.00000000E+00  0.00000000E+00
  0.00000000E+00  0.00000000E+00  0.00000000E+00
  0.00000000E+00  0.00000000E+00  0.00000000E+00
  0.00000000E+00  0.00000000E+00  0.00000000E+00
  0.00000000E+00  0.00000000E+00  0.00000000E+00
  0.00000000E+00  0.00000000E+00  0.00000000E+00
  0.00000000E+00  0.00000000E+00  0.00000000E+00
  0.00000000E+00  0.00000000E+00  0.00000000E+00
  0.00000000E+00  0.00000000E+00  0.00000000E+00
  0.00000000E+00  0.00000000E+00  0.00000000E+00
  0.00000000E+00  0.00000000E+00  0.00000000E+00
  0.00000000E+00  0.00000000E+00  0.00000000E+00
  0.00000000E+00  0.00000000E+00  0.00000000E+00
  0.00000000E+00  0.00000000E+00  0.00000000E+00
  0.00000000E+00  0.00000000E+00  0.00000000E+00
  0.00000000E+00  0.00000000E+00  0.00000000E+00
  0.00000000E+00  0.00000000E+00  0.00000000E+00
  0.00000000E+00  0.00000000E+00  0.00000000E+00
  0.00000000E+00  0.00000000E+00  0.00000000E+00
  0.00000000E+00  0.00000000E+00  0.00000000E+00
  0.00000000E+00  0.00000000E+00  0.00000000E+00
  0.00000000E+00  0.00000000E+00  0.00000000E+00
  0.00000000E+00  0.00000000E+00  0.00000000E+00
  0.00000000E+00  0.00000000E+00  0.00000000E+00
  0.00000000E+00  0.00000000E+00  0.00000000E+00
  0.00000000E+00  0.00000000E+00  0.00000000E+00
  0.00000000E+00  0.00000000E+00  0.00000000E+00
  0.00000000E+00  0.00000000E+00  0.00000000E+00
  0.00000000E+00  0.00000000E+00  0.00000000E+00
  0.00000000E+00  0.00000000E+00  0.00000000E+00
  0.00000000E+00  0.00000000E+00  0.00000000E+00
  0.00000000E+00  0.00000000E+00  0.00000000E+00
  0.00000000E+00  0.00000000E+00  0.00000000E+00
  0.00000000E+00  0.00000000E+00  0.00000000E+00
  0.00000000E+00  0.00000000E+00  0.00000000E+00
