POSCAR                                  
   1.00000000000000     
     5.1105999999999998    0.0000000000000000    0.0000000000000000
     0.0000000000000000    9.8117999999999999    0.0000000000000000
     0.0000000000000000    0.0000000000000000   29.5262090000000015
   O    Ti
     1    80
Selective dynamics
Direct
  0.6184561214716722  0.4002101615727160  0.4870186318752339   T   T   T
  0.1746351943852447  0.4645985299926632  0.0239710810521790   T   T   T
  0.7102034528506276  0.5115630419829802  0.0794122182275455   T   T   T
  0.7101204701194631  0.0545697475923708  0.1228872139060270   T   T   T
  0.1875802787402297  0.1037794118393322  0.1753850953372058   T   T   T
  0.7110260489134096  0.1527031694681685  0.2275197856065077   T   T   T
  0.2093108675305624  0.1956386857238983  0.2713737433146305   T   T   T
  0.6809282739117788  0.2435527878990041  0.3268034897646211   T   T   T
  0.2396904037686914  0.3215951182790423  0.3786418050110893   T   T   T
  0.7490849825636815  0.3312468701013662  0.4225889582628556   T   T   T
  0.2896006754617539  0.2830866012186393  0.4759531456204554   T   T   T
  0.5426330101630316  0.2461918241569371  0.0507586218048210   T   T   T
  0.0487270959336030  0.2834752480416997  0.0995678881276388   T   T   T
  0.5489983275521564  0.3240989402236574  0.1516753026908481   T   T   T
  0.0491183591886900  0.3827192315672863  0.1990173440159272   T   T   T
  0.5480427615596429  0.4234108983366412  0.2513745720111710   T   T   T
  0.0444650960842597  0.4626247962098088  0.2994600969918965   T   T   T
  0.5701304198292970  0.5344230397987196  0.3503869663984936   T   T   T
  0.4913106601449930  0.0871434776058494  0.4061685387807427   T   T   T
  0.9854564266347168  0.0655626411999749  0.4459409441203835   T   T   T
  0.6747870352159703  0.9646102141090387  0.0240386489127384   T   T   T
  0.2102073842079145  0.0114947860117397  0.0794121368423843   T   T   T
  0.2098773828152305  0.5543844793105338  0.1228576480829580   T   T   T
  0.6869199190254955  0.6037540856187867  0.1756300551917490   T   T   T
  0.2090061082457009  0.6525214806329572  0.2273668507208105   T   T   T
  0.7080501226075876  0.6952265845723340  0.2721521446536708   T   T   T
  0.1810682903479962  0.7424740058659771  0.3261217472250248   T   T   T
  0.7362658631727798  0.8209248476435881  0.3793427887493311   T   T   T
  0.2435555140337472  0.8345154721814920  0.4209129192711873   T   T   T
  0.8032087802366610  0.7907863894260320  0.4775287384332021   T   T   T
  0.0425381041579057  0.7461595850976558  0.0507759871478497   T   T   T
  0.5488516921004368  0.7835176842579686  0.0997949016455038   T   T   T
  0.0487574703457318  0.8240574976386948  0.1516525444397502   T   T   T
  0.5490171761599417  0.8826901999900265  0.1991618665545665   T   T   T
  0.0479003263658035  0.9231054778335971  0.2509547993647971   T   T   T
  0.5434386745167264  0.9625329906964432  0.2995567466786160   T   T   T
  0.0677664059861842  0.0364402163569829  0.3485635963049390   T   T   T
 -0.0029067542813786  0.5869615972827427  0.4053578947430449   T   T   T
  0.4833701167930935  0.5727218267250466  0.4497002822537265   T   T   T
  0.7395331696384237  0.3822881419938892  0.9701157046699305   T   T   T
  0.2425680071506467  0.3673670559788024  0.9304739968604628   T   T   T
  0.3144378830578102  0.9167106448813553  0.8725800634113891   T   T   T
  0.7876512572487008  0.9834670017870885  0.8236981346775122   T   T   T
  0.2942638162348002  0.0201913798018830  0.7755828797810024   T   T   T
  0.7976038091748486  0.0613377064984631  0.7236197702908004   T   T   T
  0.2919799178522879  0.1097061825270159  0.6743811425087166   T   T   T
  0.7927641659260167  0.1523889428308849  0.6251113443488838   T   T   T
  0.2948737783060187  0.1925921565732252  0.5743906652084616   T   T   T
  0.7851146340140290  0.2307041445335052  0.5211957471352415   T   T   T
  0.4918119863829033  0.1170010142276158  0.9433786302191272   T   T   T
  0.9888163797240866  0.1327020010224929  0.9040949516862696   T   T   T
  0.4312368586354124  0.2072140165133937  0.8499730993125116   T   T   T
  0.9575340964440561  0.2487767182510738  0.7964824946938568   T   T   T
  0.4554797075365230  0.2901375535594234  0.7504765246139392   T   T   T
  0.9451679786672567  0.3377144681770507  0.6992961704157399   T   T   T
  0.4504026645029779  0.3815727930969739  0.6490715888886441   T   T   T
  0.4550401497945449  0.9239719579515149  0.6009431224422168   T   T   T
  0.9529143523362887  0.9688216740314709  0.5527241593858290   T   T   T
  0.2395731883619523  0.8826177840891332  0.9700369391702687   T   T   T
  0.7425795954797612  0.8672911437432707  0.9305692278747281   T   T   T
  0.8132011550285413  0.4166252569816185  0.8725647139442929   T   T   T
  0.2873048687339811  0.4835098539213323  0.8239724632896827   T   T   T
  0.7942220433468395  0.5196736262903348  0.7756574268983426   T   T   T
  0.2969800107180338  0.5610070931095188  0.7238967930670797   T   T   T
  0.7919213810453128  0.6095233650089884  0.6750379213402780   T   T   T
  0.2937761040725586  0.6510978501523591  0.6258228167993402   T   T   T
  0.7939219469725690  0.6935308145626662  0.5755759325501303   T   T   T
  0.2873320531668903  0.7375470526502071  0.5263768664023316   T   T   T
  0.9910258578143952  0.6168382933915023  0.9434674069785112   T   T   T
  0.4882105430311271  0.6327573339507974  0.9042590827989478   T   T   T
  0.9311141455192479  0.7069602299367300  0.8501659743983899   T   T   T
  0.4576191996528194  0.7487020798434412  0.7966692090246232   T   T   T
  0.9563492782959298  0.7900158022410887  0.7507517558756661   T   T   T
  0.4448900272965235  0.8378490912351690  0.7000413583738950   T   T   T
  0.9516028728367436  0.8800654879574984  0.6495414745951422   T   T   T
  0.9521924810197389  0.4255086583376383  0.5999392659783174   T   T   T
  0.4536681037523156  0.4713703168732508  0.5492179897179260   T   T   T
  0.0716495381230994  0.1693054026361251  0.0017246435944463   T   T   T
  0.5710985933647278  0.6696195916013287  0.0019109012292107   T   T   T
  0.4352172379078960  0.0077591550287844  0.5005394202975214   T   T   T
  0.9485742247478213  0.5168393625084307  0.5012347217513545   T   T   T
 
  0.00000000E+00  0.00000000E+00  0.00000000E+00
  0.00000000E+00  0.00000000E+00  0.00000000E+00
  0.00000000E+00  0.00000000E+00  0.00000000E+00
  0.00000000E+00  0.00000000E+00  0.00000000E+00
  0.00000000E+00  0.00000000E+00  0.00000000E+00
  0.00000000E+00  0.00000000E+00  0.00000000E+00
  0.00000000E+00  0.00000000E+00  0.00000000E+00
  0.00000000E+00  0.00000000E+00  0.00000000E+00
  0.00000000E+00  0.00000000E+00  0.00000000E+00
  0.00000000E+00  0.00000000E+00  0.00000000E+00
  0.00000000E+00  0.00000000E+00  0.00000000E+00
  0.00000000E+00  0.00000000E+00  0.00000000E+00
  0.00000000E+00  0.00000000E+00  0.00000000E+00
  0.00000000E+00  0.00000000E+00  0.00000000E+00
  0.00000000E+00  0.00000000E+00  0.00000000E+00
  0.00000000E+00  0.00000000E+00  0.00000000E+00
  0.00000000E+00  0.00000000E+00  0.00000000E+00
  0.00000000E+00  0.00000000E+00  0.00000000E+00
  0.00000000E+00  0.00000000E+00  0.00000000E+00
  0.00000000E+00  0.00000000E+00  0.00000000E+00
  0.00000000E+00  0.00000000E+00  0.00000000E+00
  0.00000000E+00  0.00000000E+00  0.00000000E+00
  0.00000000E+00  0.00000000E+00  0.00000000E+00
  0.00000000E+00  0.00000000E+00  0.00000000E+00
  0.00000000E+00  0.00000000E+00  0.00000000E+00
  0.00000000E+00  0.00000000E+00  0.00000000E+00
  0.00000000E+00  0.00000000E+00  0.00000000E+00
  0.00000000E+00  0.00000000E+00  0.00000000E+00
  0.00000000E+00  0.00000000E+00  0.00000000E+00
  0.00000000E+00  0.00000000E+00  0.00000000E+00
  0.00000000E+00  0.00000000E+00  0.00000000E+00
  0.00000000E+00  0.00000000E+00  0.00000000E+00
  0.00000000E+00  0.00000000E+00  0.00000000E+00
  0.00000000E+00  0.00000000E+00  0.00000000E+00
  0.00000000E+00  0.00000000E+00  0.00000000E+00
  0.00000000E+00  0.00000000E+00  0.00000000E+00
  0.00000000E+00  0.00000000E+00  0.00000000E+00
  0.00000000E+00  0.00000000E+00  0.00000000E+00
  0.00000000E+00  0.00000000E+00  0.00000000E+00
  0.00000000E+00  0.00000000E+00  0.00000000E+00
  0.00000000E+00  0.00000000E+00  0.00000000E+00
  0.00000000E+00  0.00000000E+00  0.00000000E+00
  0.00000000E+00  0.00000000E+00  0.00000000E+00
  0.00000000E+00  0.00000000E+00  0.00000000E+00
  0.00000000E+00  0.00000000E+00  0.00000000E+00
  0.00000000E+00  0.00000000E+00  0.00000000E+00
  0.00000000E+00  0.00000000E+00  0.00000000E+00
  0.00000000E+00  0.00000000E+00  0.00000000E+00
  0.00000000E+00  0.00000000E+00  0.00000000E+00
  0.00000000E+00  0.00000000E+00  0.00000000E+00
  0.00000000E+00  0.00000000E+00  0.00000000E+00
  0.00000000E+00  0.00000000E+00  0.00000000E+00
  0.00000000E+00  0.00000000E+00  0.00000000E+00
  0.00000000E+00  0.00000000E+00  0.00000000E+00
  0.00000000E+00  0.00000000E+00  0.00000000E+00
  0.00000000E+00  0.00000000E+00  0.00000000E+00
  0.00000000E+00  0.00000000E+00  0.00000000E+00
  0.00000000E+00  0.00000000E+00  0.00000000E+00
  0.00000000E+00  0.00000000E+00  0.00000000E+00
  0.00000000E+00  0.00000000E+00  0.00000000E+00
  0.00000000E+00  0.00000000E+00  0.00000000E+00
  0.00000000E+00  0.00000000E+00  0.00000000E+00
  0.00000000E+00  0.00000000E+00  0.00000000E+00
  0.00000000E+00  0.00000000E+00  0.00000000E+00
  0.00000000E+00  0.00000000E+00  0.00000000E+00
  0.00000000E+00  0.00000000E+00  0.00000000E+00
  0.00000000E+00  0.00000000E+00  0.00000000E+00
  0.00000000E+00  0.00000000E+00  0.00000000E+00
  0.00000000E+00  0.00000000E+00  0.00000000E+00
  0.00000000E+00  0.00000000E+00  0.00000000E+00
  0.00000000E+00  0.00000000E+00  0.00000000E+00
  0.00000000E+00  0.00000000E+00  0.00000000E+00
  0.00000000E+00  0.00000000E+00  0.00000000E+00
  0.00000000E+00  0.00000000E+00  0.00000000E+00
  0.00000000E+00  0.00000000E+00  0.00000000E+00
  0.00000000E+00  0.00000000E+00  0.00000000E+00
  0.00000000E+00  0.00000000E+00  0.00000000E+00
  0.00000000E+00  0.00000000E+00  0.00000000E+00
  0.00000000E+00  0.00000000E+00  0.00000000E+00
  0.00000000E+00  0.00000000E+00  0.00000000E+00
  0.00000000E+00  0.00000000E+00  0.00000000E+00
