POSCAR 
1.0 
37.142700 0.000000 0.000000 
0.000000 5.110600 0.000000 
0.000000 0.000000 7.531000 
Ti 
80 
Selective Dynamics
Direct 
0.380688 0.345788 0.872695 T T T 
0.380688 0.654212 0.372695 T T T 
0.457662 0.318971 0.231319 T T T 
0.457662 0.681029 0.731319 T T T 
0.345891 0.784876 0.044969 T T T 
0.345891 0.215124 0.544969 T T T 
0.457296 0.817028 0.380110 T T T 
0.457296 0.182972 0.880110 T T T 
0.317886 0.345646 0.211129 T T T 
0.317886 0.654355 0.711129 T T T 
0.423029 0.262051 0.552912 T T T 
0.423029 0.737949 0.052912 T T T 
0.192997 0.834164 0.993844 T T T 
0.192997 0.165836 0.493844 T T T 
0.303201 0.833698 0.358591 T T T 
0.303201 0.166302 0.858591 T T T 
0.388587 0.846085 0.727465 T T T 
0.388587 0.153915 0.227465 T T T 
0.178675 0.345379 0.141136 T T T 
0.178675 0.654621 0.641136 T T T 
0.269735 0.318468 0.522244 T T T 
0.269735 0.681532 0.022244 T T T 
0.038717 0.817103 0.973655 T T T 
0.038717 0.182897 0.473655 T T T 
0.150355 0.783243 0.307925 T T T 
0.150355 0.216757 0.807925 T T T 
0.248321 0.850660 0.675763 T T T 
0.248321 0.149340 0.175763 T T T 
0.036139 0.319503 0.122287 T T T 
0.036139 0.680497 0.622287 T T T 
0.115437 0.346052 0.480638 T T T 
0.115437 0.653948 0.980638 T T T 
0.226541 0.317089 0.829832 T T T 
0.226541 0.682911 0.329832 T T T 
0.107938 0.846011 0.625783 T T T 
0.107938 0.153989 0.125783 T T T 
0.073225 0.260785 0.800435 T T T 
0.073225 0.739215 0.300435 T T T 
0.615415 0.653935 0.373013 T T T 
0.615415 0.346065 0.873013 T T T 
0.538809 0.680476 0.731498 T T T 
0.538809 0.319524 0.231498 T T T 
0.650323 0.216555 0.545592 T T T 
0.650323 0.783445 0.045592 T T T 
0.538702 0.182899 0.880155 T T T 
0.538702 0.817101 0.380155 T T T 
0.678601 0.654581 0.712261 T T T 
0.678601 0.345419 0.212261 T T T 
0.573201 0.739141 0.053263 T T T 
0.573201 0.260859 0.553263 T T T 
0.803176 0.166271 0.494791 T T T 
0.803176 0.833729 0.994791 T T T 
0.692968 0.165876 0.859551 T T T 
0.692968 0.834123 0.359551 T T T 
0.607886 0.153955 0.227885 T T T 
0.607886 0.846045 0.727885 T T T 
0.817817 0.654414 0.642244 T T T 
0.817817 0.345586 0.142244 T T T 
0.726503 0.682698 0.023474 T T T 
0.726503 0.317301 0.523474 T T T 
0.957302 0.182977 0.473705 T T T 
0.957302 0.817023 0.973705 T T T 
0.845866 0.215343 0.808547 T T T 
0.845866 0.784657 0.308547 T T T 
0.748235 0.149318 0.177450 T T T 
0.748235 0.850682 0.677450 T T T 
0.960338 0.681039 0.622463 T T T 
0.960338 0.318961 0.122463 T T T 
0.880681 0.654195 0.980949 T T T 
0.880681 0.345805 0.480949 T T T 
0.769702 0.681706 0.331045 T T T 
0.769702 0.318294 0.831045 T T T 
0.888539 0.153944 0.126186 T T T 
0.888539 0.846056 0.626186 T T T 
0.923019 0.738061 0.300784 T T T 
0.923019 0.261939 0.800784 T T T 
0.998087 0.781894 0.289275 T T T 
0.998087 0.218106 0.789275 T T T 
0.498079 0.218036 0.564577 T T T 
0.498079 0.781964 0.064577 T T T 
