POSCAR 
1.0 
5.110600 0.000000 0.000000 
0.000000 9.811800 0.000000 
0.000000 0.000000 27.920198 
O Ti 
1 80 
Selective Dynamics
Direct 
0.500099 0.261131 0.499972 T T T 
0.249365 0.386671 0.021746 T T T 
0.699706 0.444056 0.076097 T T T 
0.711934 0.992968 0.125745 T T T 
0.206200 0.036677 0.174037 T T T 
0.698422 0.083139 0.224948 T T T 
0.198873 0.129290 0.274753 T T T 
0.697432 0.173654 0.325415 T T T 
0.183036 0.218211 0.373830 T T T 
0.686625 0.268071 0.428183 T T T 
0.179822 0.308886 0.471133 T T T 
0.534864 0.162485 0.049819 T T T 
0.041034 0.223845 0.098693 T T T 
0.535671 0.263584 0.149340 T T T 
0.035663 0.308198 0.198833 T T T 
0.534194 0.356432 0.249540 T T T 
0.031101 0.400777 0.298480 T T T 
0.526892 0.445384 0.350304 T T T 
0.530781 0.994721 0.400806 T T T 
0.013636 0.034049 0.448384 T T T 
0.749239 0.887031 0.021905 T T T 
0.199873 0.944375 0.076076 T T T 
0.212167 0.492910 0.125316 T T T 
0.705869 0.536588 0.173953 T T T 
0.199567 0.582634 0.224221 T T T 
0.702634 0.628748 0.275019 T T T 
0.204334 0.673448 0.323121 T T T 
0.698735 0.720857 0.373668 T T T 
0.205027 0.764567 0.423940 T T T 
0.743803 0.807169 0.479948 T T T 
0.034924 0.662563 0.049735 T T T 
0.541139 0.723852 0.098832 T T T 
0.036460 0.763785 0.149170 T T T 
0.536472 0.808184 0.199253 T T T 
0.035009 0.856258 0.248804 T T T 
0.532854 0.901495 0.299284 T T T 
0.034928 0.944448 0.348838 T T T 
0.019118 0.495402 0.397001 T T T 
0.519080 0.552946 0.448331 T T T 
0.750724 0.386712 0.978247 T T T 
0.300308 0.444101 0.923904 T T T 
0.288121 0.992975 0.874250 T T T 
0.793874 0.036723 0.825963 T T T 
0.301688 0.083214 0.775051 T T T 
0.801225 0.129394 0.725250 T T T 
0.302714 0.173810 0.674594 T T T 
0.817151 0.218390 0.626172 T T T 
0.313506 0.268297 0.571807 T T T 
0.820194 0.309021 0.528856 T T T 
0.465091 0.162574 0.950158 T T T 
0.959057 0.223887 0.901302 T T T 
0.464363 0.263616 0.850658 T T T 
0.964412 0.308236 0.801160 T T T 
0.465929 0.356495 0.750459 T T T 
0.969026 0.400856 0.701518 T T T 
0.473256 0.445485 0.649686 T T T 
0.469299 0.994886 0.599215 T T T 
0.986580 0.034262 0.551620 T T T 
0.250857 0.887058 0.978088 T T T 
0.800144 0.944427 0.923923 T T T 
0.787903 0.492910 0.874678 T T T 
0.294220 0.536629 0.826045 T T T 
0.800560 0.582700 0.775782 T T T 
0.297511 0.628856 0.724988 T T T 
0.795868 0.673572 0.676892 T T T 
0.301413 0.720986 0.626327 T T T 
0.794936 0.764840 0.576090 T T T 
0.255987 0.807335 0.520063 T T T 
0.964992 0.662663 0.950245 T T T 
0.458974 0.723890 0.901162 T T T 
0.963595 0.763816 0.850833 T T T 
0.463628 0.808233 0.800746 T T T 
0.965110 0.856320 0.751206 T T T 
0.467282 0.901560 0.700711 T T T 
0.965250 0.944548 0.651173 T T T 
0.980970 0.495546 0.602984 T T T 
0.481260 0.553180 0.551622 T T T 
0.000064 0.129472 0.000005 T T T 
0.500071 0.629741 0.000014 T T T 
0.499996 0.060337 0.500014 T T T 
0.000058 0.566301 0.500007 T T T 
