POSCAR 
1.0 
24.437700 0.000000 0.000000 
0.000000 5.110600 0.000000 
0.000000 0.000000 11.062900 
O Ti 
1 80 
Selective Dynamics
Direct 
0.423945 0.252041 0.393762 T T T 
0.454507 0.076741 0.231187 T T T 
0.396915 0.577008 0.297803 T T T 
0.249746 0.086831 0.015214 T T T 
0.347436 0.080916 0.370861 T T T 
0.200230 0.581960 0.084376 T T T 
0.297759 0.589247 0.443834 T T T 
0.150939 0.081478 0.158690 T T T 
0.102215 0.583968 0.228313 T T T 
0.054485 0.078717 0.295793 T T T 
0.548018 0.921954 0.486680 T T T 
0.602929 0.417676 0.052100 T T T 
0.750431 0.913410 0.266458 T T T 
0.652004 0.920703 0.122621 T T T 
0.799282 0.416942 0.335812 T T T 
0.701124 0.417672 0.197373 T T T 
0.848474 0.920042 0.410502 T T T 
0.897794 0.418585 0.479785 T T T 
0.945161 0.921316 0.048557 T T T 
0.455140 0.921745 0.490616 T T T 
0.398194 0.417396 0.052955 T T T 
0.249064 0.914553 0.265174 T T T 
0.348409 0.920121 0.124201 T T T 
0.200159 0.417675 0.335185 T T T 
0.298070 0.418211 0.197513 T T T 
0.151402 0.920835 0.409071 T T T 
0.101940 0.419812 0.478573 T T T 
0.054650 0.920864 0.045625 T T T 
0.547805 0.084722 0.235085 T T T 
0.602619 0.581564 0.302011 T T T 
0.750064 0.087347 0.016491 T T T 
0.652558 0.077904 0.372907 T T T 
0.799199 0.582380 0.085881 T T T 
0.701525 0.583763 0.446823 T T T 
0.848463 0.079896 0.160461 T T T 
0.897715 0.581763 0.229904 T T T 
0.945070 0.080119 0.298557 T T T 
0.501188 0.567772 0.158919 T T T 
0.499504 0.426717 0.413012 T T T 
0.999390 0.571856 0.370677 T T T 
0.000206 0.431851 0.120404 T T T 
0.452736 0.079256 0.736591 T T T 
0.397199 0.580015 0.803808 T T T 
0.250038 0.087528 0.513975 T T T 
0.347665 0.079657 0.874086 T T T 
0.200792 0.582947 0.584874 T T T 
0.298678 0.584882 0.946519 T T T 
0.151484 0.081851 0.658057 T T T 
0.102412 0.583400 0.728091 T T T 
0.054703 0.079027 0.795806 T T T 
0.546513 0.922010 0.986752 T T T 
0.603122 0.414874 0.553011 T T T 
0.750339 0.913169 0.767057 T T T 
0.652171 0.919001 0.623181 T T T 
0.799329 0.416656 0.836105 T T T 
0.701160 0.416634 0.697232 T T T 
0.848497 0.920354 0.910758 T T T 
0.897844 0.418388 0.979811 T T T 
0.945113 0.920841 0.548660 T T T 
0.453207 0.916815 0.983344 T T T 
0.398568 0.422469 0.556203 T T T 
0.249699 0.913808 0.765666 T T T 
0.348108 0.917381 0.626475 T T T 
0.201020 0.417504 0.835237 T T T 
0.299094 0.416876 0.697107 T T T 
0.151535 0.921709 0.908816 T T T 
0.101965 0.418917 0.978244 T T T 
0.054616 0.921136 0.546209 T T T 
0.546742 0.078841 0.735853 T T T 
0.602512 0.582048 0.801610 T T T 
0.750279 0.086655 0.516820 T T T 
0.651663 0.077744 0.872210 T T T 
0.799221 0.582571 0.586203 T T T 
0.701337 0.582618 0.946639 T T T 
0.848472 0.079375 0.660702 T T T 
0.897769 0.581491 0.730065 T T T 
0.945175 0.079621 0.798424 T T T 
0.499826 0.562058 0.662170 T T T 
0.499837 0.426820 0.911621 T T T 
0.999741 0.571873 0.870258 T T T 
0.000070 0.433585 0.620334 T T T 
