POSCAR 
1.0 
25.237700 0.000000 0.000000 
0.000000 5.110600 0.000000 
0.000000 0.000000 11.062900 
Ti 
80 
Selective Dynamics
Direct 
0.437332 0.079007 0.234327 T T T 
0.397736 0.581619 0.302534 T T T 
0.249991 0.086548 0.016260 T T T 
0.348376 0.079387 0.372077 T T T 
0.200921 0.582665 0.085814 T T T 
0.299064 0.582619 0.446745 T T T 
0.151610 0.079442 0.160381 T T T 
0.102254 0.581623 0.229936 T T T 
0.054738 0.079073 0.298126 T T T 
0.562668 0.920993 0.484327 T T T 
0.602264 0.418381 0.052534 T T T 
0.750009 0.913452 0.266260 T T T 
0.651624 0.920613 0.122077 T T T 
0.799079 0.417335 0.335814 T T T 
0.700936 0.417381 0.196745 T T T 
0.848390 0.920558 0.410381 T T T 
0.897746 0.418377 0.479936 T T T 
0.945262 0.920927 0.048126 T T T 
0.437332 0.920993 0.484327 T T T 
0.397736 0.418381 0.052534 T T T 
0.249991 0.913452 0.266260 T T T 
0.348376 0.920613 0.122077 T T T 
0.200921 0.417335 0.335814 T T T 
0.299064 0.417381 0.196745 T T T 
0.151610 0.920558 0.410381 T T T 
0.102254 0.418377 0.479936 T T T 
0.054738 0.920927 0.048126 T T T 
0.562668 0.079007 0.234327 T T T 
0.602264 0.581619 0.302534 T T T 
0.750009 0.086548 0.016260 T T T 
0.651624 0.079387 0.372077 T T T 
0.799079 0.582665 0.085814 T T T 
0.700936 0.582619 0.446745 T T T 
0.848390 0.079442 0.160381 T T T 
0.897746 0.581623 0.229936 T T T 
0.945262 0.079073 0.298126 T T T 
0.500000 0.569450 0.161191 T T T 
0.500000 0.430550 0.411191 T T T 
0.000000 0.569520 0.371190 T T T 
0.000000 0.430480 0.121190 T T T 
0.437332 0.079007 0.734327 T T T 
0.397736 0.581619 0.802534 T T T 
0.249991 0.086548 0.516260 T T T 
0.348376 0.079387 0.872077 T T T 
0.200921 0.582665 0.585814 T T T 
0.299064 0.582619 0.946745 T T T 
0.151610 0.079442 0.660381 T T T 
0.102254 0.581623 0.729936 T T T 
0.054738 0.079073 0.798126 T T T 
0.562668 0.920993 0.984327 T T T 
0.602264 0.418381 0.552534 T T T 
0.750009 0.913452 0.766260 T T T 
0.651624 0.920613 0.622077 T T T 
0.799079 0.417335 0.835814 T T T 
0.700936 0.417381 0.696745 T T T 
0.848390 0.920558 0.910381 T T T 
0.897746 0.418377 0.979936 T T T 
0.945262 0.920927 0.548126 T T T 
0.437332 0.920993 0.984327 T T T 
0.397736 0.418381 0.552534 T T T 
0.249991 0.913452 0.766260 T T T 
0.348376 0.920613 0.622077 T T T 
0.200921 0.417335 0.835814 T T T 
0.299064 0.417381 0.696745 T T T 
0.151610 0.920558 0.910381 T T T 
0.102254 0.418377 0.979936 T T T 
0.054738 0.920927 0.548126 T T T 
0.562668 0.079007 0.734327 T T T 
0.602264 0.581619 0.802534 T T T 
0.750009 0.086548 0.516260 T T T 
0.651624 0.079387 0.872077 T T T 
0.799079 0.582665 0.585814 T T T 
0.700936 0.582619 0.946745 T T T 
0.848390 0.079442 0.660381 T T T 
0.897746 0.581623 0.729936 T T T 
0.945262 0.079073 0.798126 T T T 
0.500000 0.569450 0.661191 T T T 
0.500000 0.430550 0.911191 T T T 
0.000000 0.569520 0.871190 T T T 
0.000000 0.430480 0.621190 T T T 
