POSCAR                                  
   1.00000000000000     
    26.0795850000000016    0.0000000000000000    0.0000000000000000
     0.0000000000000000    5.1105999999999998    0.0000000000000000
     0.0000000000000000    0.0000000000000000   11.0629000000000008
   O    Ti
     1    80
Selective dynamics
Direct
  0.4238992863587251  0.2509598866455016  0.3922631942394590   T   T   T
  0.4464860270820635  0.0701135319248618  0.2318224484515874   T   T   T
  0.3965050311887126  0.5733657425493546  0.2950231786766683   T   T   T
  0.2498940968198930  0.0825890109565386  0.0157347478865135   T   T   T
  0.3490416826156056  0.0773779661589726  0.3715188030534306   T   T   T
  0.2004288030943640  0.5794581407532353  0.0845850214017572   T   T   T
  0.2979282906660957  0.5829957842973539  0.4444902172309619   T   T   T
  0.1511598253019792  0.0793194831339596  0.1581876711137895   T   T   T
  0.1024432574343172  0.5819037557356982  0.2280706417870321   T   T   T
  0.0543404624823682  0.0759985187393726  0.2958272033513604   T   T   T
  0.5554417589020879  0.9279329024804479  0.4879208602994938   T   T   T
  0.6034438240004009  0.4167927025169996  0.0544277798797063   T   T   T
  0.7502826612902547  0.9180964377177395  0.2668647095879047   T   T   T
  0.6515349830424048  0.9208209948788411  0.1237783169515302   T   T   T
  0.7992293966893156  0.4206551593198631  0.3359989545974659   T   T   T
  0.7010488017404745  0.4213803435298607  0.1977020452028659   T   T   T
  0.8484538530561796  0.9221241903318100  0.4097361376803325   T   T   T
  0.8974856890848375  0.4206639191431942  0.4790052056644390   T   T   T
  0.9454619269536766  0.9261094730954933  0.0473330015892653   T   T   T
  0.4470115818734738  0.9238435338953987  0.4910803567277347   T   T   T
  0.3989461642350827  0.4217947255749858  0.0508513775479902   T   T   T
  0.2497870862595257  0.9221558623775242  0.2659536250999420   T   T   T
  0.3488214800777497  0.9300991496788024  0.1245510846672704   T   T   T
  0.2004708292701662  0.4252834255850300  0.3354325508007875   T   T   T
  0.2974181028015973  0.4251558720656548  0.1979955532528199   T   T   T
  0.1516155048832923  0.9262333284099522  0.4083520238714052   T   T   T
  0.1023732281283785  0.4243048103162500  0.4784220255133068   T   T   T
  0.0548293397141615  0.9254090567514911  0.0454205730565066   T   T   T
  0.5557311361460711  0.0805686636544042  0.2378369918719134   T   T   T
  0.6026393789311123  0.5759583850779048  0.3043910225872665   T   T   T
  0.7499215316867535  0.0797530571447960  0.0168408046799510   T   T   T
  0.6522854783159985  0.0735772379568941  0.3740947276793717   T   T   T
  0.7988929064174364  0.5764748733995394  0.0861340266251517   T   T   T
  0.7016713448946218  0.5768769835764859  0.4470460305533772   T   T   T
  0.8483753233801906  0.0754122071988722  0.1595967259473665   T   T   T
  0.8976312892289704  0.5780365338837279  0.2291088048293708   T   T   T
  0.9449478476675001  0.0770641255517983  0.2972899349776067   T   T   T
  0.5026935019836773  0.5574751320311282  0.1559372413742048   T   T   T
  0.4967452921670171  0.4325397632311514  0.4098848104010086   T   T   T
  0.9988929416131642  0.5644390076853241  0.3730197236532843   T   T   T
  0.0008544158007690  0.4371078734996320  0.1227122839737903   T   T   T
  0.4449321434069827  0.0750627237520535  0.7367973167402555   T   T   T
  0.3968999265006157  0.5789539930911578  0.8025530713580041   T   T   T
  0.2500014217313604  0.0836373720823962  0.5138965228358258   T   T   T
  0.3477589212290836  0.0779361626353176  0.8738801665613256   T   T   T
  0.2009262456735113  0.5802443393593569  0.5850212405407149   T   T   T
  0.2987859211548246  0.5817981242996484  0.9466723234889786   T   T   T
  0.1516345785082278  0.0799830486322778  0.6579345686602784   T   T   T
  0.1028543920507851  0.5819903848383451  0.7279240383122482   T   T   T
  0.0544595085011878  0.0753359585368987  0.7958058345564749   T   T   T
  0.5541391005122474  0.9303041089616075  0.9885022537031096   T   T   T
  0.6030872679041083  0.4156078964190578  0.5546243176488811   T   T   T
  0.7501987997950136  0.9178104100389465  0.7670114276396452   T   T   T
  0.6517140074212484  0.9200179934334077  0.6240195886057474   T   T   T
  0.7991874395720112  0.4201665179384979  0.8360053255033205   T   T   T
  0.7009731210040019  0.4203631232166675  0.6974826641396538   T   T   T
  0.8483283412453304  0.9222927291191472  0.9100072212273955   T   T   T
  0.8974282422850035  0.4199539183014622  0.9792165510292160   T   T   T
  0.9454711617627576  0.9260591060028814  0.5474627889712330   T   T   T
  0.4447422075190623  0.9193278062094046  0.9832577300786630   T   T   T
  0.3989749351824630  0.4272118791734442  0.5537187705023577   T   T   T
  0.2499477325468032  0.9207457595442650  0.7657335236510761   T   T   T
  0.3481246111654570  0.9244385043352666  0.6262417523097947   T   T   T
  0.2014720851692320  0.4237607255055088  0.8354226209686895   T   T   T
  0.2990255092283875  0.4229995544028370  0.6969689282522813   T   T   T
  0.1517270759029557  0.9264922520378481  0.9082059320627625   T   T   T
  0.1022238425518903  0.4232673734873582  0.9778023033133804   T   T   T
  0.0548447101494873  0.9249732043474264  0.5458895417281608   T   T   T
  0.5549952303477487  0.0737156616280826  0.7374660639712814   T   T   T
  0.6026528550724082  0.5776626031785261  0.8031986898194313   T   T   T
  0.7501927316801101  0.0798223384308212  0.5171736903398646   T   T   T
  0.6516560574661309  0.0726136068207840  0.8734455520522106   T   T   T
  0.7988859373040484  0.5768592830955085  0.5863144459542096   T   T   T
  0.7015323350646659  0.5765306214422087  0.9467005776141530   T   T   T
  0.8483830688294353  0.0752004379938812  0.6597082939875846   T   T   T
  0.8976123610324792  0.5785025137729657  0.7294391432776735   T   T   T
  0.9449954440010426  0.0770513105019832  0.7973694292175029   T   T   T
  0.5000869903515092  0.5569907271104467  0.6590143163456812   T   T   T
  0.4982594925335512  0.4320144990499071  0.9081758637854386   T   T   T
  0.9990256711211480  0.5646498009501713  0.8730208753263997   T   T   T
  0.0007730963226460  0.4379099691009254  0.6230223213966848   T   T   T
 
  0.00000000E+00  0.00000000E+00  0.00000000E+00
  0.00000000E+00  0.00000000E+00  0.00000000E+00
  0.00000000E+00  0.00000000E+00  0.00000000E+00
  0.00000000E+00  0.00000000E+00  0.00000000E+00
  0.00000000E+00  0.00000000E+00  0.00000000E+00
  0.00000000E+00  0.00000000E+00  0.00000000E+00
  0.00000000E+00  0.00000000E+00  0.00000000E+00
  0.00000000E+00  0.00000000E+00  0.00000000E+00
  0.00000000E+00  0.00000000E+00  0.00000000E+00
  0.00000000E+00  0.00000000E+00  0.00000000E+00
  0.00000000E+00  0.00000000E+00  0.00000000E+00
  0.00000000E+00  0.00000000E+00  0.00000000E+00
  0.00000000E+00  0.00000000E+00  0.00000000E+00
  0.00000000E+00  0.00000000E+00  0.00000000E+00
  0.00000000E+00  0.00000000E+00  0.00000000E+00
  0.00000000E+00  0.00000000E+00  0.00000000E+00
  0.00000000E+00  0.00000000E+00  0.00000000E+00
  0.00000000E+00  0.00000000E+00  0.00000000E+00
  0.00000000E+00  0.00000000E+00  0.00000000E+00
  0.00000000E+00  0.00000000E+00  0.00000000E+00
  0.00000000E+00  0.00000000E+00  0.00000000E+00
  0.00000000E+00  0.00000000E+00  0.00000000E+00
  0.00000000E+00  0.00000000E+00  0.00000000E+00
  0.00000000E+00  0.00000000E+00  0.00000000E+00
  0.00000000E+00  0.00000000E+00  0.00000000E+00
  0.00000000E+00  0.00000000E+00  0.00000000E+00
  0.00000000E+00  0.00000000E+00  0.00000000E+00
  0.00000000E+00  0.00000000E+00  0.00000000E+00
  0.00000000E+00  0.00000000E+00  0.00000000E+00
  0.00000000E+00  0.00000000E+00  0.00000000E+00
  0.00000000E+00  0.00000000E+00  0.00000000E+00
  0.00000000E+00  0.00000000E+00  0.00000000E+00
  0.00000000E+00  0.00000000E+00  0.00000000E+00
  0.00000000E+00  0.00000000E+00  0.00000000E+00
  0.00000000E+00  0.00000000E+00  0.00000000E+00
  0.00000000E+00  0.00000000E+00  0.00000000E+00
  0.00000000E+00  0.00000000E+00  0.00000000E+00
  0.00000000E+00  0.00000000E+00  0.00000000E+00
  0.00000000E+00  0.00000000E+00  0.00000000E+00
  0.00000000E+00  0.00000000E+00  0.00000000E+00
  0.00000000E+00  0.00000000E+00  0.00000000E+00
  0.00000000E+00  0.00000000E+00  0.00000000E+00
  0.00000000E+00  0.00000000E+00  0.00000000E+00
  0.00000000E+00  0.00000000E+00  0.00000000E+00
  0.00000000E+00  0.00000000E+00  0.00000000E+00
  0.00000000E+00  0.00000000E+00  0.00000000E+00
  0.00000000E+00  0.00000000E+00  0.00000000E+00
  0.00000000E+00  0.00000000E+00  0.00000000E+00
  0.00000000E+00  0.00000000E+00  0.00000000E+00
  0.00000000E+00  0.00000000E+00  0.00000000E+00
  0.00000000E+00  0.00000000E+00  0.00000000E+00
  0.00000000E+00  0.00000000E+00  0.00000000E+00
  0.00000000E+00  0.00000000E+00  0.00000000E+00
  0.00000000E+00  0.00000000E+00  0.00000000E+00
  0.00000000E+00  0.00000000E+00  0.00000000E+00
  0.00000000E+00  0.00000000E+00  0.00000000E+00
  0.00000000E+00  0.00000000E+00  0.00000000E+00
  0.00000000E+00  0.00000000E+00  0.00000000E+00
  0.00000000E+00  0.00000000E+00  0.00000000E+00
  0.00000000E+00  0.00000000E+00  0.00000000E+00
  0.00000000E+00  0.00000000E+00  0.00000000E+00
  0.00000000E+00  0.00000000E+00  0.00000000E+00
  0.00000000E+00  0.00000000E+00  0.00000000E+00
  0.00000000E+00  0.00000000E+00  0.00000000E+00
  0.00000000E+00  0.00000000E+00  0.00000000E+00
  0.00000000E+00  0.00000000E+00  0.00000000E+00
  0.00000000E+00  0.00000000E+00  0.00000000E+00
  0.00000000E+00  0.00000000E+00  0.00000000E+00
  0.00000000E+00  0.00000000E+00  0.00000000E+00
  0.00000000E+00  0.00000000E+00  0.00000000E+00
  0.00000000E+00  0.00000000E+00  0.00000000E+00
  0.00000000E+00  0.00000000E+00  0.00000000E+00
  0.00000000E+00  0.00000000E+00  0.00000000E+00
  0.00000000E+00  0.00000000E+00  0.00000000E+00
  0.00000000E+00  0.00000000E+00  0.00000000E+00
  0.00000000E+00  0.00000000E+00  0.00000000E+00
  0.00000000E+00  0.00000000E+00  0.00000000E+00
  0.00000000E+00  0.00000000E+00  0.00000000E+00
  0.00000000E+00  0.00000000E+00  0.00000000E+00
  0.00000000E+00  0.00000000E+00  0.00000000E+00
  0.00000000E+00  0.00000000E+00  0.00000000E+00
