bulk                                    
   1.00000000000000     
     2.9506000000000001    0.0000000000000000    0.0000000000000000
     0.0000000000000000   51.1058999999999983    0.0000000000000000
     0.0000000000000000    0.0000000000000000    9.3575999999999997
   Ti
    80
Selective dynamics
Direct
  0.0000000000000000  0.0333299999999994  0.1250000000000000   T   T   T
  0.5000000000000000  0.0833299999999966  0.1250000000000000   T   T   T
  0.5000000000000000  0.0166699999999977  0.3750000000000000   T   T   T
  0.0000000000000000  0.0666700000000020  0.3750000000000000   T   T   T
  0.0000000000000000  0.0333299999999994  0.6250000000000000   T   T   T
  0.5000000000000000  0.0833299999999966  0.6250000000000000   T   T   T
  0.5000000000000000  0.0166699999999977  0.8750000000000000   T   T   T
  0.0000000000000000  0.0666700000000020  0.8750000000000000   T   T   T
  0.0000000000000000  0.1333300000000008  0.1250000000000000   T   T   T
  0.5000000000000000  0.1833299999999980  0.1250000000000000   T   T   T
  0.5000000000000000  0.1166699999999992  0.3750000000000000   T   T   T
  0.0000000000000000  0.1666700000000034  0.3750000000000000   T   T   T
  0.0000000000000000  0.1333300000000008  0.6250000000000000   T   T   T
  0.5000000000000000  0.1833299999999980  0.6250000000000000   T   T   T
  0.5000000000000000  0.1166699999999992  0.8750000000000000   T   T   T
  0.0000000000000000  0.1666700000000034  0.8750000000000000   T   T   T
  0.0000000000000000  0.2333300000000023  0.1250000000000000   T   T   T
  0.5000000000000000  0.2833299999999994  0.1250000000000000   T   T   T
  0.5000000000000000  0.2166700000000006  0.3750000000000000   T   T   T
  0.0000000000000000  0.2666699999999977  0.3750000000000000   T   T   T
  0.0000000000000000  0.2333300000000023  0.6250000000000000   T   T   T
  0.5000000000000000  0.2833299999999994  0.6250000000000000   T   T   T
  0.5000000000000000  0.2166700000000006  0.8750000000000000   T   T   T
  0.0000000000000000  0.2666699999999977  0.8750000000000000   T   T   T
  0.0000000000000000  0.3333299999999966  0.1250000000000000   T   T   T
  0.5000000000000000  0.3833300000000008  0.1250000000000000   T   T   T
  0.5000000000000000  0.3166700000000020  0.3750000000000000   T   T   T
  0.0000000000000000  0.3666699999999992  0.3750000000000000   T   T   T
  0.0000000000000000  0.3333299999999966  0.6250000000000000   T   T   T
  0.5000000000000000  0.3833300000000008  0.6250000000000000   T   T   T
  0.5000000000000000  0.3166700000000020  0.8750000000000000   T   T   T
  0.0000000000000000  0.3666699999999992  0.8750000000000000   T   T   T
  0.0000000000000000  0.4333299999999980  0.1250000000000000   T   T   T
  0.5000000000000000  0.4833300000000023  0.1250000000000000   T   T   T
  0.5000000000000000  0.4166700000000034  0.3750000000000000   T   T   T
  0.0000000000000000  0.4666700000000006  0.3750000000000000   T   T   T
  0.0000000000000000  0.4333299999999980  0.6250000000000000   T   T   T
  0.5000000000000000  0.4833300000000023  0.6250000000000000   T   T   T
  0.5000000000000000  0.4166700000000034  0.8750000000000000   T   T   T
  0.0000000000000000  0.4666700000000006  0.8750000000000000   T   T   T
  0.0000000000000000  0.5333299999999994  0.1250000000000000   T   T   T
  0.5000000000000000  0.5833299999999966  0.1250000000000000   T   T   T
  0.5000000000000000  0.5166699999999977  0.3750000000000000   T   T   T
  0.0000000000000000  0.5666700000000020  0.3750000000000000   T   T   T
  0.0000000000000000  0.5333299999999994  0.6250000000000000   T   T   T
  0.5000000000000000  0.5833299999999966  0.6250000000000000   T   T   T
  0.5000000000000000  0.5166699999999977  0.8750000000000000   T   T   T
  0.0000000000000000  0.5666700000000020  0.8750000000000000   T   T   T
  0.0000000000000000  0.6333300000000008  0.1250000000000000   T   T   T
  0.5000000000000000  0.6833299999999980  0.1250000000000000   T   T   T
  0.5000000000000000  0.6166699999999992  0.3750000000000000   T   T   T
  0.0000000000000000  0.6666700000000034  0.3750000000000000   T   T   T
  0.0000000000000000  0.6333300000000008  0.6250000000000000   T   T   T
  0.5000000000000000  0.6833299999999980  0.6250000000000000   T   T   T
  0.5000000000000000  0.6166699999999992  0.8750000000000000   T   T   T
  0.0000000000000000  0.6666700000000034  0.8750000000000000   T   T   T
  0.0000000000000000  0.7333300000000023  0.1250000000000000   T   T   T
  0.5000000000000000  0.7833299999999994  0.1250000000000000   T   T   T
  0.5000000000000000  0.7166700000000006  0.3750000000000000   T   T   T
  0.0000000000000000  0.7666699999999977  0.3750000000000000   T   T   T
  0.0000000000000000  0.7333300000000023  0.6250000000000000   T   T   T
  0.5000000000000000  0.7833299999999994  0.6250000000000000   T   T   T
  0.5000000000000000  0.7166700000000006  0.8750000000000000   T   T   T
  0.0000000000000000  0.7666699999999977  0.8750000000000000   T   T   T
  0.0000000000000000  0.8333299999999966  0.1250000000000000   T   T   T
  0.5000000000000000  0.8833300000000008  0.1250000000000000   T   T   T
  0.5000000000000000  0.8166700000000020  0.3750000000000000   T   T   T
  0.0000000000000000  0.8666699999999992  0.3750000000000000   T   T   T
  0.0000000000000000  0.8333299999999966  0.6250000000000000   T   T   T
  0.5000000000000000  0.8833300000000008  0.6250000000000000   T   T   T
  0.5000000000000000  0.8166700000000020  0.8750000000000000   T   T   T
  0.0000000000000000  0.8666699999999992  0.8750000000000000   T   T   T
  0.0000000000000000  0.9333299999999980  0.1250000000000000   T   T   T
  0.5000000000000000  0.9833300000000023  0.1250000000000000   T   T   T
  0.5000000000000000  0.9166700000000034  0.3750000000000000   T   T   T
  0.0000000000000000  0.9666700000000006  0.3750000000000000   T   T   T
  0.0000000000000000  0.9333299999999980  0.6250000000000000   T   T   T
  0.5000000000000000  0.9833300000000023  0.6250000000000000   T   T   T
  0.5000000000000000  0.9166700000000034  0.8750000000000000   T   T   T
  0.0000000000000000  0.9666700000000006  0.8750000000000000   T   T   T
 
  0.00000000E+00  0.00000000E+00  0.00000000E+00
  0.00000000E+00  0.00000000E+00  0.00000000E+00
  0.00000000E+00  0.00000000E+00  0.00000000E+00
  0.00000000E+00  0.00000000E+00  0.00000000E+00
  0.00000000E+00  0.00000000E+00  0.00000000E+00
  0.00000000E+00  0.00000000E+00  0.00000000E+00
  0.00000000E+00  0.00000000E+00  0.00000000E+00
  0.00000000E+00  0.00000000E+00  0.00000000E+00
  0.00000000E+00  0.00000000E+00  0.00000000E+00
  0.00000000E+00  0.00000000E+00  0.00000000E+00
  0.00000000E+00  0.00000000E+00  0.00000000E+00
  0.00000000E+00  0.00000000E+00  0.00000000E+00
  0.00000000E+00  0.00000000E+00  0.00000000E+00
  0.00000000E+00  0.00000000E+00  0.00000000E+00
  0.00000000E+00  0.00000000E+00  0.00000000E+00
  0.00000000E+00  0.00000000E+00  0.00000000E+00
  0.00000000E+00  0.00000000E+00  0.00000000E+00
  0.00000000E+00  0.00000000E+00  0.00000000E+00
  0.00000000E+00  0.00000000E+00  0.00000000E+00
  0.00000000E+00  0.00000000E+00  0.00000000E+00
  0.00000000E+00  0.00000000E+00  0.00000000E+00
  0.00000000E+00  0.00000000E+00  0.00000000E+00
  0.00000000E+00  0.00000000E+00  0.00000000E+00
  0.00000000E+00  0.00000000E+00  0.00000000E+00
  0.00000000E+00  0.00000000E+00  0.00000000E+00
  0.00000000E+00  0.00000000E+00  0.00000000E+00
  0.00000000E+00  0.00000000E+00  0.00000000E+00
  0.00000000E+00  0.00000000E+00  0.00000000E+00
  0.00000000E+00  0.00000000E+00  0.00000000E+00
  0.00000000E+00  0.00000000E+00  0.00000000E+00
  0.00000000E+00  0.00000000E+00  0.00000000E+00
  0.00000000E+00  0.00000000E+00  0.00000000E+00
  0.00000000E+00  0.00000000E+00  0.00000000E+00
  0.00000000E+00  0.00000000E+00  0.00000000E+00
  0.00000000E+00  0.00000000E+00  0.00000000E+00
  0.00000000E+00  0.00000000E+00  0.00000000E+00
  0.00000000E+00  0.00000000E+00  0.00000000E+00
  0.00000000E+00  0.00000000E+00  0.00000000E+00
  0.00000000E+00  0.00000000E+00  0.00000000E+00
  0.00000000E+00  0.00000000E+00  0.00000000E+00
  0.00000000E+00  0.00000000E+00  0.00000000E+00
  0.00000000E+00  0.00000000E+00  0.00000000E+00
  0.00000000E+00  0.00000000E+00  0.00000000E+00
  0.00000000E+00  0.00000000E+00  0.00000000E+00
  0.00000000E+00  0.00000000E+00  0.00000000E+00
  0.00000000E+00  0.00000000E+00  0.00000000E+00
  0.00000000E+00  0.00000000E+00  0.00000000E+00
  0.00000000E+00  0.00000000E+00  0.00000000E+00
  0.00000000E+00  0.00000000E+00  0.00000000E+00
  0.00000000E+00  0.00000000E+00  0.00000000E+00
  0.00000000E+00  0.00000000E+00  0.00000000E+00
  0.00000000E+00  0.00000000E+00  0.00000000E+00
  0.00000000E+00  0.00000000E+00  0.00000000E+00
  0.00000000E+00  0.00000000E+00  0.00000000E+00
  0.00000000E+00  0.00000000E+00  0.00000000E+00
  0.00000000E+00  0.00000000E+00  0.00000000E+00
  0.00000000E+00  0.00000000E+00  0.00000000E+00
  0.00000000E+00  0.00000000E+00  0.00000000E+00
  0.00000000E+00  0.00000000E+00  0.00000000E+00
  0.00000000E+00  0.00000000E+00  0.00000000E+00
  0.00000000E+00  0.00000000E+00  0.00000000E+00
  0.00000000E+00  0.00000000E+00  0.00000000E+00
  0.00000000E+00  0.00000000E+00  0.00000000E+00
  0.00000000E+00  0.00000000E+00  0.00000000E+00
  0.00000000E+00  0.00000000E+00  0.00000000E+00
  0.00000000E+00  0.00000000E+00  0.00000000E+00
  0.00000000E+00  0.00000000E+00  0.00000000E+00
  0.00000000E+00  0.00000000E+00  0.00000000E+00
  0.00000000E+00  0.00000000E+00  0.00000000E+00
  0.00000000E+00  0.00000000E+00  0.00000000E+00
  0.00000000E+00  0.00000000E+00  0.00000000E+00
  0.00000000E+00  0.00000000E+00  0.00000000E+00
  0.00000000E+00  0.00000000E+00  0.00000000E+00
  0.00000000E+00  0.00000000E+00  0.00000000E+00
  0.00000000E+00  0.00000000E+00  0.00000000E+00
  0.00000000E+00  0.00000000E+00  0.00000000E+00
  0.00000000E+00  0.00000000E+00  0.00000000E+00
  0.00000000E+00  0.00000000E+00  0.00000000E+00
  0.00000000E+00  0.00000000E+00  0.00000000E+00
  0.00000000E+00  0.00000000E+00  0.00000000E+00
