POSCAR 
1.0 
24.637699 0.000000 0.000000 
0.000000 5.110600 0.000000 
0.000000 0.000000 11.062900 
O Ti 
1 80 
Selective Dynamics
Direct 
0.500018 0.684929 0.524592 T T T 
0.448772 0.072418 0.229659 T T T 
0.397573 0.571680 0.304110 T T T 
0.249487 0.086109 0.015397 T T T 
0.345404 0.082741 0.370534 T T T 
0.200189 0.581930 0.084324 T T T 
0.298170 0.588308 0.446071 T T T 
0.151120 0.080334 0.158659 T T T 
0.102326 0.582398 0.228355 T T T 
0.054507 0.077375 0.295608 T T T 
0.555016 0.923112 0.477044 T T T 
0.603706 0.410233 0.052028 T T T 
0.751546 0.911394 0.265731 T T T 
0.652837 0.914009 0.121876 T T T 
0.799494 0.415870 0.335930 T T T 
0.702210 0.416450 0.195934 T T T 
0.849023 0.920568 0.410472 T T T 
0.898320 0.417244 0.479917 T T T 
0.945265 0.920114 0.048139 T T T 
0.445071 0.923278 0.476811 T T T 
0.396359 0.410450 0.051673 T T T 
0.248510 0.911811 0.264815 T T T 
0.347245 0.914297 0.121314 T T T 
0.200614 0.416078 0.334943 T T T 
0.297876 0.416887 0.195248 T T T 
0.151077 0.921215 0.409048 T T T 
0.101719 0.417225 0.478921 T T T 
0.054790 0.919906 0.045838 T T T 
0.551299 0.072179 0.229936 T T T 
0.602497 0.571219 0.304392 T T T 
0.750568 0.085504 0.016258 T T T 
0.654694 0.082310 0.371060 T T T 
0.799850 0.581215 0.085326 T T T 
0.701889 0.587781 0.446754 T T T 
0.848875 0.079793 0.160075 T T T 
0.897834 0.581295 0.229325 T T T 
0.945472 0.078171 0.297895 T T T 
0.500045 0.564606 0.164047 T T T 
0.500000 0.412153 0.402925 T T T 
0.999834 0.573507 0.370396 T T T 
0.000105 0.434988 0.120562 T T T 
0.448644 0.101704 0.742950 T T T 
0.396835 0.585193 0.804586 T T T 
0.249458 0.087933 0.515887 T T T 
0.347408 0.079319 0.872837 T T T 
0.200133 0.583331 0.584242 T T T 
0.298400 0.583376 0.946583 T T T 
0.151113 0.080814 0.658846 T T T 
0.102268 0.583166 0.728546 T T T 
0.054593 0.077573 0.795342 T T T 
0.550676 0.901117 0.983421 T T T 
0.605946 0.411446 0.552413 T T T 
0.750766 0.912748 0.766257 T T T 
0.652410 0.920757 0.622337 T T T 
0.799513 0.416554 0.835845 T T T 
0.701730 0.417804 0.696027 T T T 
0.848890 0.920350 0.910251 T T T 
0.898117 0.417266 0.979552 T T T 
0.945323 0.919034 0.548488 T T T 
0.449406 0.901360 0.983114 T T T 
0.394082 0.411686 0.552054 T T T 
0.249246 0.913132 0.765340 T T T 
0.347626 0.920982 0.621790 T T T 
0.200582 0.416707 0.834892 T T T 
0.298318 0.418220 0.695351 T T T 
0.151182 0.921016 0.908879 T T T 
0.101930 0.417218 0.978605 T T T 
0.054772 0.918798 0.546200 T T T 
0.551405 0.101304 0.743271 T T T 
0.603214 0.584766 0.804910 T T T 
0.750607 0.087309 0.516738 T T T 
0.652631 0.078754 0.873358 T T T 
0.799892 0.582616 0.585266 T T T 
0.701658 0.582747 0.947277 T T T 
0.848873 0.080189 0.660286 T T T 
0.897892 0.582044 0.729543 T T T 
0.945383 0.078172 0.797660 T T T 
0.500035 0.601676 0.695376 T T T 
0.500036 0.411419 0.924388 T T T 
0.999865 0.573684 0.870436 T T T 
0.000123 0.434265 0.619904 T T T 
