POSCAR                                  
   1.00000000000000     
    38.7898339999999990    0.0000000000000000    0.0000000000000000
     0.0000000000000000    5.1105999999999998    0.0000000000000000
     0.0000000000000000    0.0000000000000000    7.5309999999999997
   O    Ti
     1    80
Selective dynamics
Direct
  0.4981302284210636  0.5406983406630014  0.2972552256741820   T   T   T
  0.3829228700438235  0.3422733825279717  0.8700852417793163   T   T   T
  0.3815971838093030  0.6464132409473621  0.3671878648810657   T   T   T
  0.4578554276621243  0.3025994381028114  0.2142191201994756   T   T   T
  0.4594587161443024  0.6762099457132157  0.7384675506734080   T   T   T
  0.3464567440728489  0.7690650425510833  0.0423130009152676   T   T   T
  0.3462819861703015  0.2212312795247749  0.5446907008642696   T   T   T
  0.4582530616972524  0.8033952855882323  0.3860343779100154   T   T   T
  0.4585536676405530  0.1756372561292564  0.8665901335982559   T   T   T
  0.3160819134390835  0.3385143097429434  0.2132037041112958   T   T   T
  0.3164612684947103  0.6551979431009739  0.7128363548588885   T   T   T
  0.4233292978615464  0.2564786613296426  0.5478150651484377   T   T   T
  0.4225211740972736  0.7475687389925101  0.0522591339535574   T   T   T
  0.1927147968767433  0.8339232516526672  0.9976757863863543   T   T   T
  0.1928058607090355  0.1626337966333608  0.4975632679264861   T   T   T
  0.3033955325197940  0.8344450045144804  0.3575402414279670   T   T   T
  0.3034685239236540  0.1590675429535193  0.8584942839015537   T   T   T
  0.3876247008507217  0.8417245505941320  0.7241104934022379   T   T   T
  0.3860828060750838  0.1489102347569365  0.2285608149296382   T   T   T
  0.1780742386101649  0.3414624423285839  0.1430986152057336   T   T   T
  0.1782248965818392  0.6548600338402655  0.6440657616030429   T   T   T
  0.2702969080867110  0.3088638699198257  0.5251497026978471   T   T   T
  0.2701907129274788  0.6874920580106813  0.0239776721553914   T   T   T
  0.0384392874915393  0.8160982775059039  0.9776089150388116   T   T   T
  0.0385118487008405  0.1802549391697019  0.4771858693607855   T   T   T
  0.1494408801283920  0.7785596682327867  0.3107860075404880   T   T   T
  0.1493606209780771  0.2179732021493507  0.8107023416730728   T   T   T
  0.2472837408863368  0.8433054698268081  0.6787891290846081   T   T   T
  0.2469091125020657  0.1513178876907538  0.1813356388309517   T   T   T
  0.0362365012511881  0.3165787210467403  0.1246811548232892   T   T   T
  0.0362484727980472  0.6799879743694194  0.6249316507030598   T   T   T
  0.1145772870660422  0.3442326286031853  0.4846615092033923   T   T   T
  0.1145156726810910  0.6521883754232016  0.9845416940804718   T   T   T
  0.2256442754769329  0.3138366023528654  0.8327483920398883   T   T   T
  0.2255823026512876  0.6788932904575180  0.3323824580399997   T   T   T
  0.1077775535186179  0.8431159387843588  0.6271366545230526   T   T   T
  0.1077945410413993  0.1531688563305096  0.1272741283952508   T   T   T
  0.0726923539007520  0.2561119360729765  0.8028047321448395   T   T   T
  0.0727165087857531  0.7400496174377932  0.3028874768615537   T   T   T
  0.6146388255770694  0.6465676260111893  0.3672902833205562   T   T   T
  0.6133204861347946  0.3424234241403554  0.8701781857109440   T   T   T
  0.5368306549488945  0.6763159830877598  0.7384841551716594   T   T   T
  0.5384351705384687  0.3028336410066703  0.2142998350692678   T   T   T
  0.6499746746608236  0.2216446906553079  0.5448488225011450   T   T   T
  0.6498066760698752  0.7689693117033034  0.0424678068593594   T   T   T
  0.5376771193785224  0.1757956777865957  0.8666503711698273   T   T   T
  0.5379931663819190  0.8035444368381072  0.3860542028064000   T   T   T
  0.6798558381861289  0.6554193094914346  0.7130735377751054   T   T   T
  0.6802320820846708  0.3386340809832044  0.2134732207802778   T   T   T
  0.5737421677342706  0.7478061663859735  0.0523165144493863   T   T   T
  0.5729350771423509  0.2564916852771981  0.5478918957622756   T   T   T
  0.8034361308788085  0.1628897435498734  0.4978230267634681   T   T   T
  0.8035292072686406  0.8339691754014046  0.9979302780432675   T   T   T
  0.6927707766448434  0.1591617649462111  0.8587129393456584   T   T   T
  0.6928397758766219  0.8347015161257487  0.3577667662065268   T   T   T
  0.6102115512816435  0.1490654182174963  0.2286505231335612   T   T   T
  0.6086700265685617  0.8418613630436497  0.7242261827516989   T   T   T
  0.8180926972053324  0.6549791009985169  0.6443545230244437   T   T   T
  0.8182411000316688  0.3416492303984950  0.1433990102466834   T   T   T
  0.7260647052501900  0.6879666667743596  0.0242799738832327   T   T   T
  0.7259594655106605  0.3086739336481968  0.5254361817474223   T   T   T
  0.9577365375901660  0.1805006189235968  0.4771944495124609   T   T   T
  0.9577962129731012  0.8161909428594585  0.9776646236808083   T   T   T
  0.8469034174076748  0.2178415989828744  0.8108930348626809   T   T   T
  0.8468245507292662  0.7789927967923705  0.3109814998970886   T   T   T
  0.7494184349822635  0.1514783216831170  0.1817485857746171   T   T   T
  0.7490480392462849  0.8434609094842249  0.6792405687260047   T   T   T
  0.9600743286239778  0.6803220046418856  0.6250174862801586   T   T   T
  0.9600754011254102  0.3165840854990784  0.1247190268406154   T   T   T
  0.8817218677569673  0.6523631241719450  0.9846659767688151   T   T   T
  0.8816617419135729  0.3443604562293074  0.4847780023951116   T   T   T
  0.7706753980805392  0.6787768317152154  0.3326902726464143   T   T   T
  0.7706125431522149  0.3143018358104347  0.8330584494295848   T   T   T
  0.8885121939642490  0.1533083258828440  0.1274033365156563   T   T   T
  0.8885296937670122  0.8432771100446370  0.6272636555973029   T   T   T
  0.9235595748706317  0.7400161278941386  0.3029931799557227   T   T   T
  0.9235820822634737  0.2564426286603011  0.8028811258783239   T   T   T
  0.9981312229417877  0.7679379159999340  0.2957474677026247   T   T   T
  0.9981322592304878  0.2257037578383211  0.7948001260993937   T   T   T
  0.4981310547863747  0.2981731997796134  0.5306684226679845   T   T   T
  0.4981335926659920  0.7782194250635573  0.0635446056993224   T   T   T
 
  0.00000000E+00  0.00000000E+00  0.00000000E+00
  0.00000000E+00  0.00000000E+00  0.00000000E+00
  0.00000000E+00  0.00000000E+00  0.00000000E+00
  0.00000000E+00  0.00000000E+00  0.00000000E+00
  0.00000000E+00  0.00000000E+00  0.00000000E+00
  0.00000000E+00  0.00000000E+00  0.00000000E+00
  0.00000000E+00  0.00000000E+00  0.00000000E+00
  0.00000000E+00  0.00000000E+00  0.00000000E+00
  0.00000000E+00  0.00000000E+00  0.00000000E+00
  0.00000000E+00  0.00000000E+00  0.00000000E+00
  0.00000000E+00  0.00000000E+00  0.00000000E+00
  0.00000000E+00  0.00000000E+00  0.00000000E+00
  0.00000000E+00  0.00000000E+00  0.00000000E+00
  0.00000000E+00  0.00000000E+00  0.00000000E+00
  0.00000000E+00  0.00000000E+00  0.00000000E+00
  0.00000000E+00  0.00000000E+00  0.00000000E+00
  0.00000000E+00  0.00000000E+00  0.00000000E+00
  0.00000000E+00  0.00000000E+00  0.00000000E+00
  0.00000000E+00  0.00000000E+00  0.00000000E+00
  0.00000000E+00  0.00000000E+00  0.00000000E+00
  0.00000000E+00  0.00000000E+00  0.00000000E+00
  0.00000000E+00  0.00000000E+00  0.00000000E+00
  0.00000000E+00  0.00000000E+00  0.00000000E+00
  0.00000000E+00  0.00000000E+00  0.00000000E+00
  0.00000000E+00  0.00000000E+00  0.00000000E+00
  0.00000000E+00  0.00000000E+00  0.00000000E+00
  0.00000000E+00  0.00000000E+00  0.00000000E+00
  0.00000000E+00  0.00000000E+00  0.00000000E+00
  0.00000000E+00  0.00000000E+00  0.00000000E+00
  0.00000000E+00  0.00000000E+00  0.00000000E+00
  0.00000000E+00  0.00000000E+00  0.00000000E+00
  0.00000000E+00  0.00000000E+00  0.00000000E+00
  0.00000000E+00  0.00000000E+00  0.00000000E+00
  0.00000000E+00  0.00000000E+00  0.00000000E+00
  0.00000000E+00  0.00000000E+00  0.00000000E+00
  0.00000000E+00  0.00000000E+00  0.00000000E+00
  0.00000000E+00  0.00000000E+00  0.00000000E+00
  0.00000000E+00  0.00000000E+00  0.00000000E+00
  0.00000000E+00  0.00000000E+00  0.00000000E+00
  0.00000000E+00  0.00000000E+00  0.00000000E+00
  0.00000000E+00  0.00000000E+00  0.00000000E+00
  0.00000000E+00  0.00000000E+00  0.00000000E+00
  0.00000000E+00  0.00000000E+00  0.00000000E+00
  0.00000000E+00  0.00000000E+00  0.00000000E+00
  0.00000000E+00  0.00000000E+00  0.00000000E+00
  0.00000000E+00  0.00000000E+00  0.00000000E+00
  0.00000000E+00  0.00000000E+00  0.00000000E+00
  0.00000000E+00  0.00000000E+00  0.00000000E+00
  0.00000000E+00  0.00000000E+00  0.00000000E+00
  0.00000000E+00  0.00000000E+00  0.00000000E+00
  0.00000000E+00  0.00000000E+00  0.00000000E+00
  0.00000000E+00  0.00000000E+00  0.00000000E+00
  0.00000000E+00  0.00000000E+00  0.00000000E+00
  0.00000000E+00  0.00000000E+00  0.00000000E+00
  0.00000000E+00  0.00000000E+00  0.00000000E+00
  0.00000000E+00  0.00000000E+00  0.00000000E+00
  0.00000000E+00  0.00000000E+00  0.00000000E+00
  0.00000000E+00  0.00000000E+00  0.00000000E+00
  0.00000000E+00  0.00000000E+00  0.00000000E+00
  0.00000000E+00  0.00000000E+00  0.00000000E+00
  0.00000000E+00  0.00000000E+00  0.00000000E+00
  0.00000000E+00  0.00000000E+00  0.00000000E+00
  0.00000000E+00  0.00000000E+00  0.00000000E+00
  0.00000000E+00  0.00000000E+00  0.00000000E+00
  0.00000000E+00  0.00000000E+00  0.00000000E+00
  0.00000000E+00  0.00000000E+00  0.00000000E+00
  0.00000000E+00  0.00000000E+00  0.00000000E+00
  0.00000000E+00  0.00000000E+00  0.00000000E+00
  0.00000000E+00  0.00000000E+00  0.00000000E+00
  0.00000000E+00  0.00000000E+00  0.00000000E+00
  0.00000000E+00  0.00000000E+00  0.00000000E+00
  0.00000000E+00  0.00000000E+00  0.00000000E+00
  0.00000000E+00  0.00000000E+00  0.00000000E+00
  0.00000000E+00  0.00000000E+00  0.00000000E+00
  0.00000000E+00  0.00000000E+00  0.00000000E+00
  0.00000000E+00  0.00000000E+00  0.00000000E+00
  0.00000000E+00  0.00000000E+00  0.00000000E+00
  0.00000000E+00  0.00000000E+00  0.00000000E+00
  0.00000000E+00  0.00000000E+00  0.00000000E+00
  0.00000000E+00  0.00000000E+00  0.00000000E+00
  0.00000000E+00  0.00000000E+00  0.00000000E+00
