POSCAR 
1.0 
37.342697 0.000000 0.000000 
0.000000 5.110600 0.000000 
0.000000 0.000000 7.531000 
O Ti 
1 80 
Selective Dynamics
Direct 
0.498119 0.545426 0.298407 T T T 
0.381854 0.341737 0.871284 T T T 
0.380464 0.644839 0.366814 T T T 
0.452293 0.300270 0.210271 T T T 
0.454294 0.675693 0.739355 T T T 
0.345368 0.773299 0.041736 T T T 
0.345207 0.215007 0.544566 T T T 
0.457317 0.806552 0.388414 T T T 
0.458302 0.175605 0.865272 T T T 
0.316091 0.341146 0.211557 T T T 
0.316769 0.650840 0.711770 T T T 
0.422798 0.260902 0.548133 T T T 
0.421945 0.746561 0.051416 T T T 
0.192544 0.832034 0.997652 T T T 
0.192627 0.164832 0.497519 T T T 
0.303179 0.830935 0.358097 T T T 
0.303278 0.161211 0.858983 T T T 
0.387648 0.843110 0.721052 T T T 
0.385860 0.145709 0.227636 T T T 
0.177885 0.344733 0.144385 T T T 
0.178110 0.651566 0.645510 T T T 
0.269221 0.312741 0.525352 T T T 
0.269051 0.684478 0.023732 T T T 
0.038769 0.815375 0.977275 T T T 
0.038806 0.180604 0.476996 T T T 
0.150218 0.782927 0.311426 T T T 
0.150142 0.213603 0.811253 T T T 
0.247417 0.848416 0.678136 T T T 
0.246869 0.146180 0.181432 T T T 
0.035959 0.317484 0.125561 T T T 
0.035991 0.678480 0.625708 T T T 
0.115302 0.344289 0.484154 T T T 
0.115226 0.652134 0.983878 T T T 
0.226441 0.314797 0.833392 T T T 
0.226359 0.677257 0.332563 T T T 
0.107601 0.844542 0.629019 T T T 
0.107563 0.151603 0.129141 T T T 
0.073091 0.259392 0.803805 T T T 
0.073131 0.736437 0.303903 T T T 
0.615778 0.644980 0.366934 T T T 
0.614392 0.341905 0.871370 T T T 
0.541994 0.675789 0.739370 T T T 
0.543985 0.300492 0.210346 T T T 
0.651048 0.215404 0.544725 T T T 
0.650889 0.773241 0.041888 T T T 
0.537934 0.175743 0.865337 T T T 
0.538922 0.806637 0.388422 T T T 
0.679539 0.651086 0.712000 T T T 
0.680211 0.341282 0.211824 T T T 
0.574316 0.746774 0.051486 T T T 
0.573459 0.260885 0.548194 T T T 
0.803628 0.165080 0.497792 T T T 
0.803711 0.832133 0.997931 T T T 
0.692971 0.161336 0.859211 T T T 
0.693067 0.831202 0.358323 T T T 
0.610430 0.145880 0.227729 T T T 
0.608645 0.843244 0.721176 T T T 
0.818208 0.651706 0.645813 T T T 
0.818428 0.344945 0.144699 T T T 
0.727205 0.684876 0.024036 T T T 
0.727039 0.312661 0.525632 T T T 
0.957442 0.180808 0.477015 T T T 
0.957468 0.815516 0.977341 T T T 
0.846124 0.213509 0.811459 T T T 
0.846051 0.783352 0.311632 T T T 
0.749445 0.146377 0.181810 T T T 
0.748903 0.848589 0.678546 T T T 
0.960332 0.678762 0.625794 T T T 
0.960355 0.317553 0.125608 T T T 
0.881018 0.652354 0.984021 T T T 
0.880945 0.344409 0.484297 T T T 
0.769904 0.677265 0.332883 T T T 
0.769824 0.315194 0.833696 T T T 
0.888747 0.151776 0.129300 T T T 
0.888713 0.844716 0.629172 T T T 
0.923144 0.736397 0.304033 T T T 
0.923182 0.259761 0.803912 T T T 
0.998132 0.779321 0.293040 T T T 
0.998133 0.215134 0.792354 T T T 
0.498129 0.300739 0.528503 T T T 
0.498131 0.782402 0.066002 T T T 
