POSCAR                                  
   1.00000000000000     
    31.0471250000000012    0.0000000000000000    0.0000000000000000
     0.0000000000000000    5.1105999999999998    0.0000000000000000
     0.0000000000000000    0.0000000000000000   11.0629000000000008
   Ti
    80
Selective dynamics
Direct
  0.4469945309051960  0.0552410448902180  0.1557233986774194   T   T   T
  0.3991759003338192  0.5673039817912043  0.2383045657402758   T   T   T
  0.2500010066330489  0.0488945768789554  0.0162427785280401   T   T   T
  0.3496561668049695  0.0577731322470172  0.3220990099608195   T   T   T
  0.2000767800606766  0.5517591461532463  0.1143093578924400   T   T   T
  0.2999220362959605  0.5518415304986941  0.4181845861507156   T   T   T
  0.1503389887232481  0.0577817609432918  0.2103789215081931   T   T   T
  0.1008173793711705  0.5674226885183143  0.2941663084115225   T   T   T
  0.0530194361482481  0.0551957740117227  0.3767099290996200   T   T   T
  0.5530054388987836  0.9447589766336275  0.4057233989033862   T   T   T
  0.6008241290569420  0.4326959888580299 -0.0116954308700375   T   T   T
  0.7499989631709095  0.9511054446449827  0.2662427787540069   T   T   T
  0.6503438327923374  0.9422268892768568  0.0720990097348601   T   T   T
  0.7999232344334074  0.4482408244959815  0.3643093653498063   T   T   T
  0.7000779633013604  0.4481584401504904  0.1681845705580821   T   T   T
  0.8496610108741655  0.9422182605805898  0.4603789217342025   T   T   T
  0.8991825976798619  0.4325772821309415  0.5441663086374680   T   T   T
  0.9469805783458790  0.9448042475121661  0.1267099297775561   T   T   T
  0.4469945309051960  0.9447589766336275  0.4057233989033862   T   T   T
  0.3991759003338192  0.4326959888580299 -0.0116954308700375   T   T   T
  0.2500010066330489  0.9511054446449827  0.2662427787540069   T   T   T
  0.3496561668049695  0.9422268892768568  0.0720990097348601   T   T   T
  0.2000767800606766  0.4482408244959815  0.3643093653498063   T   T   T
  0.2999220362959605  0.4481584401504904  0.1681845705580822   T   T   T
  0.1503389887232481  0.9422182605805899  0.4603789217342025   T   T   T
  0.1008173793711705  0.4325772821309415  0.5441663086374680   T   T   T
  0.0530194361482481  0.9448042475121661  0.1267099297775561   T   T   T
  0.5530054388987836  0.0552410448902180  0.1557233986774194   T   T   T
  0.6008241290569420  0.5673039817912043  0.2383045657402687   T   T   T
  0.7499989631709095  0.0488945768789554  0.0162427785280401   T   T   T
  0.6503438327923374  0.0577731322470172  0.3220990099608195   T   T   T
  0.7999232344334074  0.5517591461532462  0.1143093578924400   T   T   T
  0.7000779633013604  0.5518415304986941  0.4181845861507156   T   T   T
  0.8496610108741655  0.0577817609432918  0.2103789215081931   T   T   T
  0.8991825976798619  0.5674226885183143  0.2941663084115225   T   T   T
  0.9469805783458790  0.0551957740117227  0.3767099290996200   T   T   T
  0.4999999997986961  0.5206715942043620  0.0472479675141935   T   T   T
  0.4999999997986961  0.4793283764447946  0.2972479677401602   T   T   T
 -0.0000000000000000  0.5203484636116843  0.4852943418946896   T   T   T
 -0.0000000000000000  0.4796515070375575  0.2352943344373444   T   T   T
  0.4469945309051960  0.0552410448902180  0.6557233991293605   T   T   T
  0.3991759003338192  0.5673039817912043  0.7383045652882565   T   T   T
  0.2500010066330489  0.0488945768789554  0.5162427789800232   T   T   T
  0.3496561668049695  0.0577731322470172  0.8220989796794070   T   T   T
  0.2000767800606766  0.5517591461532462  0.6143093357462722   T   T   T
  0.2999220362959605  0.5518415304986941  0.9181845856987390   T   T   T
  0.1503389887232481  0.0577817609432918  0.7103789517895420   T   T   T
  0.1008173793711705  0.5674226885183143  0.7941663088634633   T   T   T
  0.0530194361482481  0.0551957740117227  0.8767099295515751   T   T   T
  0.5530054388987836  0.9447589766336275  0.9057233993553344   T   T   T
  0.6008241290569420  0.4326959888580299  0.4883045650622757   T   T   T
  0.7499989631709095  0.9511054446449827  0.7662427783020802   T   T   T
  0.6503438327923374  0.9422268892768568  0.5720989794534260   T   T   T
  0.7999232344334074  0.4482408244959815  0.8643093359722532   T   T   T
  0.7000779633013604  0.4481584401504904  0.6681845854727579   T   T   T
  0.8496610108741655  0.9422182605805898  0.9603789520155230   T   T   T
  0.8991825976798619  0.4325772821309415  0.0441663090894440   T   T   T
  0.9469805783458790  0.9448042475121661  0.6267099293255941   T   T   T
  0.4469945309051960  0.9447589766336275  0.9057233993553344   T   T   T
  0.3991759003338192  0.4326959888580299  0.4883045650622757   T   T   T
  0.2500010066330489  0.9511054446449827  0.7662427783020802   T   T   T
  0.3496561668049695  0.9422268892768568  0.5720989794534260   T   T   T
  0.2000767800606766  0.4482408244959815  0.8643093359722532   T   T   T
  0.2999220362959605  0.4481584401504904  0.6681845854727579   T   T   T
  0.1503389887232481  0.9422182605805899  0.9603789520155230   T   T   T
  0.1008173793711705  0.4325772821309415  0.0441663090894440   T   T   T
  0.0530194361482481  0.9448042475121661  0.6267099293255941   T   T   T
  0.5530054388987836  0.0552410448902180  0.6557233991293605   T   T   T
  0.6008241290569420  0.5673039817912043  0.7383045652882565   T   T   T
  0.7499989631709095  0.0488945768789554  0.5162427789800232   T   T   T
  0.6503438327923374  0.0577731322470172  0.8220989796794070   T   T   T
  0.7999232344334074  0.5517591461532462  0.6143093357462722   T   T   T
  0.7000779633013604  0.5518415304986941  0.9181845856987390   T   T   T
  0.8496610108741655  0.0577817609432918  0.7103789517895420   T   T   T
  0.8991825976798619  0.5674226885183143  0.7941663088634633   T   T   T
  0.9469805783458790  0.0551957740117227  0.8767099295515751   T   T   T
  0.4999999997986961  0.5206715942043620  0.5472479977955566   T   T   T
  0.4999999997986961  0.4793283764447946  0.7972479980215377   T   T   T
 -0.0000000000000000  0.5203484636116843  0.9852943116132765   T   T   T
 -0.0000000000000000  0.4796515070375575  0.7352943113872956   T   T   T
 
  0.00000000E+00  0.00000000E+00  0.00000000E+00
  0.00000000E+00  0.00000000E+00  0.00000000E+00
  0.00000000E+00  0.00000000E+00  0.00000000E+00
  0.00000000E+00  0.00000000E+00  0.00000000E+00
  0.00000000E+00  0.00000000E+00  0.00000000E+00
  0.00000000E+00  0.00000000E+00  0.00000000E+00
  0.00000000E+00  0.00000000E+00  0.00000000E+00
  0.00000000E+00  0.00000000E+00  0.00000000E+00
  0.00000000E+00  0.00000000E+00  0.00000000E+00
  0.00000000E+00  0.00000000E+00  0.00000000E+00
  0.00000000E+00  0.00000000E+00  0.00000000E+00
  0.00000000E+00  0.00000000E+00  0.00000000E+00
  0.00000000E+00  0.00000000E+00  0.00000000E+00
  0.00000000E+00  0.00000000E+00  0.00000000E+00
  0.00000000E+00  0.00000000E+00  0.00000000E+00
  0.00000000E+00  0.00000000E+00  0.00000000E+00
  0.00000000E+00  0.00000000E+00  0.00000000E+00
  0.00000000E+00  0.00000000E+00  0.00000000E+00
  0.00000000E+00  0.00000000E+00  0.00000000E+00
  0.00000000E+00  0.00000000E+00  0.00000000E+00
  0.00000000E+00  0.00000000E+00  0.00000000E+00
  0.00000000E+00  0.00000000E+00  0.00000000E+00
  0.00000000E+00  0.00000000E+00  0.00000000E+00
  0.00000000E+00  0.00000000E+00  0.00000000E+00
  0.00000000E+00  0.00000000E+00  0.00000000E+00
  0.00000000E+00  0.00000000E+00  0.00000000E+00
  0.00000000E+00  0.00000000E+00  0.00000000E+00
  0.00000000E+00  0.00000000E+00  0.00000000E+00
  0.00000000E+00  0.00000000E+00  0.00000000E+00
  0.00000000E+00  0.00000000E+00  0.00000000E+00
  0.00000000E+00  0.00000000E+00  0.00000000E+00
  0.00000000E+00  0.00000000E+00  0.00000000E+00
  0.00000000E+00  0.00000000E+00  0.00000000E+00
  0.00000000E+00  0.00000000E+00  0.00000000E+00
  0.00000000E+00  0.00000000E+00  0.00000000E+00
  0.00000000E+00  0.00000000E+00  0.00000000E+00
  0.00000000E+00  0.00000000E+00  0.00000000E+00
  0.00000000E+00  0.00000000E+00  0.00000000E+00
  0.00000000E+00  0.00000000E+00  0.00000000E+00
  0.00000000E+00  0.00000000E+00  0.00000000E+00
  0.00000000E+00  0.00000000E+00  0.00000000E+00
  0.00000000E+00  0.00000000E+00  0.00000000E+00
  0.00000000E+00  0.00000000E+00  0.00000000E+00
  0.00000000E+00  0.00000000E+00  0.00000000E+00
  0.00000000E+00  0.00000000E+00  0.00000000E+00
  0.00000000E+00  0.00000000E+00  0.00000000E+00
  0.00000000E+00  0.00000000E+00  0.00000000E+00
  0.00000000E+00  0.00000000E+00  0.00000000E+00
  0.00000000E+00  0.00000000E+00  0.00000000E+00
  0.00000000E+00  0.00000000E+00  0.00000000E+00
  0.00000000E+00  0.00000000E+00  0.00000000E+00
  0.00000000E+00  0.00000000E+00  0.00000000E+00
  0.00000000E+00  0.00000000E+00  0.00000000E+00
  0.00000000E+00  0.00000000E+00  0.00000000E+00
  0.00000000E+00  0.00000000E+00  0.00000000E+00
  0.00000000E+00  0.00000000E+00  0.00000000E+00
  0.00000000E+00  0.00000000E+00  0.00000000E+00
  0.00000000E+00  0.00000000E+00  0.00000000E+00
  0.00000000E+00  0.00000000E+00  0.00000000E+00
  0.00000000E+00  0.00000000E+00  0.00000000E+00
  0.00000000E+00  0.00000000E+00  0.00000000E+00
  0.00000000E+00  0.00000000E+00  0.00000000E+00
  0.00000000E+00  0.00000000E+00  0.00000000E+00
  0.00000000E+00  0.00000000E+00  0.00000000E+00
  0.00000000E+00  0.00000000E+00  0.00000000E+00
  0.00000000E+00  0.00000000E+00  0.00000000E+00
  0.00000000E+00  0.00000000E+00  0.00000000E+00
  0.00000000E+00  0.00000000E+00  0.00000000E+00
  0.00000000E+00  0.00000000E+00  0.00000000E+00
  0.00000000E+00  0.00000000E+00  0.00000000E+00
  0.00000000E+00  0.00000000E+00  0.00000000E+00
  0.00000000E+00  0.00000000E+00  0.00000000E+00
  0.00000000E+00  0.00000000E+00  0.00000000E+00
  0.00000000E+00  0.00000000E+00  0.00000000E+00
  0.00000000E+00  0.00000000E+00  0.00000000E+00
  0.00000000E+00  0.00000000E+00  0.00000000E+00
  0.00000000E+00  0.00000000E+00  0.00000000E+00
  0.00000000E+00  0.00000000E+00  0.00000000E+00
  0.00000000E+00  0.00000000E+00  0.00000000E+00
  0.00000000E+00  0.00000000E+00  0.00000000E+00
