K-Spacing Value to Generate K-Mesh: 0.040
0
Gamma
   1   5   3
0.0  0.0  0.0
