POSCAR                                  
   1.00000000000000     
     5.1105999999999998    0.0000000000000000    0.0000000000000000
     0.0000000000000000    9.8117999999999999    0.0000000000000000
     0.0000000000000000    0.0000000000000000   28.1201989999999995
   Ti
     80
Selective dynamics
Direct
  0.2493646732288581  0.3866706181256268  0.0217464546809526   T   T   T
  0.6997063670304765  0.4440562228567138  0.0760967637061622   T   T   T
  0.7119344639326202  0.9929683709083174  0.1257453476369339   T   T   T
  0.2062000752364138  0.0366765864464926  0.1740373853822835   T   T   T
  0.6984222474019389  0.0831388558602427  0.2249481003530255   T   T   T
  0.1988729378174477  0.1292895999306361  0.2747534811653202   T   T   T
  0.6974323830514774  0.1736535429828992  0.3254148476486338   T   T   T
  0.1830363696686349  0.2182111730686478  0.3738302034750104   T   T   T
  0.6866250247980360  0.2680707644501162  0.4281832686107405   T   T   T
  0.1798218426948971  0.3088861485604510  0.4675505069007176   T   T   T
  0.5348639174085855  0.1624849025738238  0.0498191030288529   T   T   T
  0.0410335026348533  0.2238453431377192  0.0986927792168088   T   T   T
  0.5356710015438858  0.2635844256796036  0.1493404051458306   T   T   T
  0.0356625940952500  0.3081979306673710  0.1988329237859999   T   T   T
  0.5341936171843013  0.3564318190097167  0.2495399024379740   T   T   T
  0.0311007784676123  0.4007771806076262  0.2984802552698060   T   T   T
  0.5268920455561038  0.4453835296021116  0.3503036586553995   T   T   T
  0.5307809928954340  0.9947210619060259  0.4008055221754527   T   T   T
  0.0136354999927864  0.0340491512129697  0.4483835025943660   T   T   T
  0.7492389630455083  0.8870312598690762  0.0219048127464079   T   T   T
  0.1998729352694802  0.9443749799270548  0.0760760994834452   T   T   T
  0.2121670985642942  0.4929101065979433  0.1253163274276240   T   T   T
  0.7058687320955921  0.5365875617338898  0.1739527857781406   T   T   T
  0.1995667764273022  0.5826339370856496  0.2242210163233323   T   T   T
  0.7026340189101958  0.6287481898708843  0.2750190514680573   T   T   T
  0.2043341603138557  0.6734476021153482  0.3231214198602473   T   T   T
  0.6987351051966534  0.7208565877945335  0.3736678850719490   T   T   T
  0.2050269909153362  0.7645667353965321  0.4239404896140734   T   T   T
  0.7438033668407648  0.8071692674832949  0.4763655961494765   T   T   T
  0.0349238485361553  0.6625626108474370  0.0497345918466709   T   T   T
  0.5411394794568078  0.7238522972565864  0.0988321286096154   T   T   T
  0.0364597106249918  0.7637848574883780  0.1491695225216485   T   T   T
  0.5364717100340340  0.8081836593972986  0.1992525005938851   T   T   T
  0.0350089837967538  0.8562583845634141  0.2488038249277931   T   T   T
  0.5328539173331349  0.9014953603150345  0.2992844223395856   T   T   T
  0.0349275283910245  0.9444481649204306  0.3488375763243309   T   T   T
  0.0191179673684001  0.4954024970638500  0.3970010973875707   T   T   T
  0.5190795936877198  0.5529457209454961  0.4483305322526034   T   T   T
  0.7507238129874092  0.3867118880133665  0.9782472180283620   T   T   T
  0.3003077968568780  0.4441008268392627  0.9239040368555237   T   T   T
  0.2881206061718281  0.9929754093078746  0.8742500300740969   T   T   T
  0.7938737316796828  0.0367227129051679  0.8259628170221232   T   T   T
  0.3016878087211358  0.0832144251083431  0.7750505929021753   T   T   T
  0.8012251412850667  0.1293937494338556  0.7252500054049474   T   T   T
  0.3027140128608763  0.1738097568418507  0.6745943165142979   T   T   T
  0.8171509732557518  0.2183898877836882  0.6261720562148924   T   T   T
  0.3135060557428251  0.2682971824662308  0.5718068392580324   T   T   T
  0.8201936895573785  0.3090206930595445  0.5324381322501082   T   T   T
  0.4650910412172209  0.1625735602992241  0.9501580022150531   T   T   T
  0.9590571864749576  0.2238870931761821  0.9013020020697636   T   T   T
  0.4643626973921893  0.2636164203330078  0.8506576331299699   T   T   T
  0.9644120996603801  0.3082359927848294  0.8011600744907790   T   T   T
  0.4659286768508009  0.3564951749427285  0.7504591847486726   T   T   T
  0.9690255634973475  0.4008559762350288  0.7015179136567351   T   T   T
  0.4732558571208104  0.4454851199242680  0.6496858087615462   T   T   T
  0.4692990157032171  0.9948864625039018  0.5992153207830712   T   T   T
  0.9865801209220265  0.0342616994408017  0.5516197766562231   T   T   T
  0.2508573211962478  0.8870578281918298  0.9780876560550648   T   T   T
  0.8001439376075118  0.9444274760645911  0.9239229912577357   T   T   T
  0.7879028379851462  0.4929096000291384  0.8746778816939752   T   T   T
  0.2942200509716013  0.5366287735406898  0.8260447475922701   T   T   T
  0.8005604014674469  0.5826999048506385  0.7757820370541535   T   T   T
  0.2975108416607876  0.6288561058006271  0.7249880736766080   T   T   T
  0.7958684105260854  0.6735718993087965  0.6768919942071743   T   T   T
  0.3014127947143799  0.7209863110371916  0.6263273134922728   T   T   T
  0.7949365062728156  0.7648403721865203  0.5760898164937229   T   T   T
  0.2559872294779479  0.8073350944480061  0.5236449140625298   T   T   T
  0.9649916946307940  0.6626630463682303  0.9502446703987039   T   T   T
  0.4589737877046403  0.7238902910888567  0.9011624157275556   T   T   T
  0.9635953471078573  0.7638163602660888  0.8508328784104782   T   T   T
  0.4636280842584842  0.8082332800178890  0.8007459895588449   T   T   T
  0.9651100985080044  0.8563201403388478  0.7512055242736115   T   T   T
  0.4672823662794838  0.9015598455499358  0.7007105467520479   T   T   T
  0.9652497592026935  0.9445483370874563  0.6511734601308083   T   T   T
  0.9809702250207093  0.4955457625333424  0.6029836969314916   T   T   T
  0.4812599095703958  0.5531795925988342  0.5516220873226590   T   T   T
  0.0000643668155605  0.1294722189758932  0.0000052974787362   T   T   T
  0.5000708119234044  0.6297411086328982  0.0000137449553203   T   T   T
  0.4999963298705863  0.0603372328110156  0.5000141417948102   T   T   T
  0.0000579478616419  0.5663012497404282  0.5000065843881113   T   T   T
 
  0.00000000E+00  0.00000000E+00  0.00000000E+00
  0.00000000E+00  0.00000000E+00  0.00000000E+00
  0.00000000E+00  0.00000000E+00  0.00000000E+00
  0.00000000E+00  0.00000000E+00  0.00000000E+00
  0.00000000E+00  0.00000000E+00  0.00000000E+00
  0.00000000E+00  0.00000000E+00  0.00000000E+00
  0.00000000E+00  0.00000000E+00  0.00000000E+00
  0.00000000E+00  0.00000000E+00  0.00000000E+00
  0.00000000E+00  0.00000000E+00  0.00000000E+00
  0.00000000E+00  0.00000000E+00  0.00000000E+00
  0.00000000E+00  0.00000000E+00  0.00000000E+00
  0.00000000E+00  0.00000000E+00  0.00000000E+00
  0.00000000E+00  0.00000000E+00  0.00000000E+00
  0.00000000E+00  0.00000000E+00  0.00000000E+00
  0.00000000E+00  0.00000000E+00  0.00000000E+00
  0.00000000E+00  0.00000000E+00  0.00000000E+00
  0.00000000E+00  0.00000000E+00  0.00000000E+00
  0.00000000E+00  0.00000000E+00  0.00000000E+00
  0.00000000E+00  0.00000000E+00  0.00000000E+00
  0.00000000E+00  0.00000000E+00  0.00000000E+00
  0.00000000E+00  0.00000000E+00  0.00000000E+00
  0.00000000E+00  0.00000000E+00  0.00000000E+00
  0.00000000E+00  0.00000000E+00  0.00000000E+00
  0.00000000E+00  0.00000000E+00  0.00000000E+00
  0.00000000E+00  0.00000000E+00  0.00000000E+00
  0.00000000E+00  0.00000000E+00  0.00000000E+00
  0.00000000E+00  0.00000000E+00  0.00000000E+00
  0.00000000E+00  0.00000000E+00  0.00000000E+00
  0.00000000E+00  0.00000000E+00  0.00000000E+00
  0.00000000E+00  0.00000000E+00  0.00000000E+00
  0.00000000E+00  0.00000000E+00  0.00000000E+00
  0.00000000E+00  0.00000000E+00  0.00000000E+00
  0.00000000E+00  0.00000000E+00  0.00000000E+00
  0.00000000E+00  0.00000000E+00  0.00000000E+00
  0.00000000E+00  0.00000000E+00  0.00000000E+00
  0.00000000E+00  0.00000000E+00  0.00000000E+00
  0.00000000E+00  0.00000000E+00  0.00000000E+00
  0.00000000E+00  0.00000000E+00  0.00000000E+00
  0.00000000E+00  0.00000000E+00  0.00000000E+00
  0.00000000E+00  0.00000000E+00  0.00000000E+00
  0.00000000E+00  0.00000000E+00  0.00000000E+00
  0.00000000E+00  0.00000000E+00  0.00000000E+00
  0.00000000E+00  0.00000000E+00  0.00000000E+00
  0.00000000E+00  0.00000000E+00  0.00000000E+00
  0.00000000E+00  0.00000000E+00  0.00000000E+00
  0.00000000E+00  0.00000000E+00  0.00000000E+00
  0.00000000E+00  0.00000000E+00  0.00000000E+00
  0.00000000E+00  0.00000000E+00  0.00000000E+00
  0.00000000E+00  0.00000000E+00  0.00000000E+00
  0.00000000E+00  0.00000000E+00  0.00000000E+00
  0.00000000E+00  0.00000000E+00  0.00000000E+00
  0.00000000E+00  0.00000000E+00  0.00000000E+00
  0.00000000E+00  0.00000000E+00  0.00000000E+00
  0.00000000E+00  0.00000000E+00  0.00000000E+00
  0.00000000E+00  0.00000000E+00  0.00000000E+00
  0.00000000E+00  0.00000000E+00  0.00000000E+00
  0.00000000E+00  0.00000000E+00  0.00000000E+00
  0.00000000E+00  0.00000000E+00  0.00000000E+00
  0.00000000E+00  0.00000000E+00  0.00000000E+00
  0.00000000E+00  0.00000000E+00  0.00000000E+00
  0.00000000E+00  0.00000000E+00  0.00000000E+00
  0.00000000E+00  0.00000000E+00  0.00000000E+00
  0.00000000E+00  0.00000000E+00  0.00000000E+00
  0.00000000E+00  0.00000000E+00  0.00000000E+00
  0.00000000E+00  0.00000000E+00  0.00000000E+00
  0.00000000E+00  0.00000000E+00  0.00000000E+00
  0.00000000E+00  0.00000000E+00  0.00000000E+00
  0.00000000E+00  0.00000000E+00  0.00000000E+00
  0.00000000E+00  0.00000000E+00  0.00000000E+00
  0.00000000E+00  0.00000000E+00  0.00000000E+00
  0.00000000E+00  0.00000000E+00  0.00000000E+00
  0.00000000E+00  0.00000000E+00  0.00000000E+00
  0.00000000E+00  0.00000000E+00  0.00000000E+00
  0.00000000E+00  0.00000000E+00  0.00000000E+00
  0.00000000E+00  0.00000000E+00  0.00000000E+00
  0.00000000E+00  0.00000000E+00  0.00000000E+00
  0.00000000E+00  0.00000000E+00  0.00000000E+00
  0.00000000E+00  0.00000000E+00  0.00000000E+00
  0.00000000E+00  0.00000000E+00  0.00000000E+00
  0.00000000E+00  0.00000000E+00  0.00000000E+00
  0.00000000E+00  0.00000000E+00  0.00000000E+00
