POSCAR                                  
   1.00000000000000     
    26.6272559999999991    0.0000000000000000    0.0000000000000000
     0.0000000000000000    5.1105999999999998    0.0000000000000000
     0.0000000000000000    0.0000000000000000   11.0629000000000008
   O    Ti
     1    80
Selective dynamics
Direct
  0.5000374312893406  0.7085565936753753  0.5184260303277628   T   T   T
  0.4444325595057645  0.0734192769673681  0.2300914596019389   T   T   T
  0.3979702887069609  0.5681590599844077  0.3032446596634603   T   T   T
  0.2496825347775730  0.0793422184645941  0.0158662928757295   T   T   T
  0.3451046095032236  0.0683086172220393  0.3721319593826157   T   T   T
  0.1999003790979877  0.5744827031850817  0.0845110205345070   T   T   T
  0.2954965308337170  0.5799611337249823  0.4457023379055150   T   T   T
  0.1503705982119140  0.0769053803057833  0.1588391408462447   T   T   T
  0.1027945840644045  0.5802813172976692  0.2286325509752480   T   T   T
  0.0536080595518062  0.0671824091149186  0.2965002453376746   T   T   T
  0.5582945402553688  0.9331822652667615  0.4789289478943470   T   T   T
  0.6041146840220926  0.4169990435111170  0.0512652342492234   T   T   T
  0.7522807042280321  0.9199612510535201  0.2661064382806905   T   T   T
  0.6529424828834486  0.9196174363206124  0.1219950604126469   T   T   T
  0.8005373418619207  0.4198134652994119  0.3356187126710302   T   T   T
  0.7024951965069459  0.4237172660928583  0.1959615985325326   T   T   T
  0.8492734876710543  0.9217591832915966  0.4100785004561397   T   T   T
  0.8978649367603269  0.4180460474323866  0.4794218921367457   T   T   T
  0.9463547569857026  0.9273707884498943  0.0477764819476671   T   T   T
  0.4418716072439209  0.9339426990763899  0.4781380665589268   T   T   T
  0.3960296433494327  0.4178872152853518  0.0507279280238591   T   T   T
  0.2477266322300423  0.9218074889236789  0.2649768876510964   T   T   T
  0.3472391749150462  0.9206570633920765  0.1216108082474873   T   T   T
  0.2001746579182244  0.4217895609401763  0.3352379702227002   T   T   T
  0.2976227869327630  0.4256857256679240  0.1952608924708329   T   T   T
  0.1512390526983778  0.9276054731232972  0.4094416330812343   T   T   T
  0.1016206979400689  0.4229940612354651  0.4792976694187497   T   T   T
  0.0553044852844818  0.9202594498144255  0.0466916948400783   T   T   T
  0.5555543001036768  0.0723796279929557  0.2307045993952712   T   T   T
  0.6022449687201447  0.5680711260034826  0.3036104971942540   T   T   T
  0.7504819265946219  0.0774657117167054  0.0159801952404902   T   T   T
  0.6549096003269118  0.0672773876914363  0.3723840587517346   T   T   T
  0.7994732355513471  0.5722249647832928  0.0854807071639298   T   T   T
  0.7045572020868414  0.5778169464725286  0.4461354096635392   T   T   T
  0.8491225788227762  0.0712508535438961  0.1594288548730253   T   T   T
  0.8979152362306912  0.5744672249519277  0.2294683488899728   T   T   T
  0.9447486935722398  0.0743092905797309  0.2974478340563951   T   T   T
  0.4997618589516239  0.5577912977955958  0.1598327527405743   T   T   T
  0.5001238110976918  0.4252633105962936  0.4005122390701227   T   T   T
  0.9974779956342406  0.5615983321040602  0.3752577067027174   T   T   T
  0.0031246869106616  0.4384063809263448  0.1247474454727958   T   T   T
  0.4441075775751339  0.0983250480503566  0.7424907713217688   T   T   T
  0.3979286245431900  0.5827216748197150  0.8030679474045269   T   T   T
  0.2490902523608662  0.0798388571561318  0.5166047164845597   T   T   T
  0.3466689443863231  0.0732545459044075  0.8721557903645188   T   T   T
  0.1994621993592201  0.5742801575386082  0.5856626085700547   T   T   T
  0.2980701494367186  0.5790386099038362  0.9464095576067658   T   T   T
  0.1501310467138419  0.0769957162794901  0.6592848986355740   T   T   T
  0.1025649707790448  0.5805019126339913  0.7290484120403721   T   T   T
  0.0534391509770868  0.0680385480261093  0.7968527690103786   T   T   T
  0.5549417185922504  0.9173268342221659  0.9849029849112544   T   T   T
  0.6101907179456230  0.4162607670316696  0.5511874394679093   T   T   T
  0.7518207584278178  0.9182217030533625  0.7665966859430905   T   T   T
  0.6533670383966439  0.9181354750460810  0.6221235129511601   T   T   T
  0.8000486644934033  0.4193938869752519  0.8362319441725475   T   T   T
  0.7023112214987094  0.4240795720735848  0.6969500445977520   T   T   T
  0.8492231099540537  0.9206373677283557  0.9103019978485061   T   T   T
  0.8974542237331863  0.4168080752571701  0.9793925164022647   T   T   T
  0.9464664549238412  0.9275950863567465  0.5478608557579867   T   T   T
  0.4450986198705730  0.9174085827725385  0.9844171900073829   T   T   T
  0.3898668821688605  0.4171901271670060  0.5504729658985553   T   T   T
  0.2482048446622620  0.9203293555844835  0.7654684452460934   T   T   T
  0.3468716012555889  0.9193746358680958  0.6216135445917432   T   T   T
  0.2007070861530002  0.4215742026885759  0.8359056711468992   T   T   T
  0.2977532952321406  0.4264610803386908  0.6960950684942011   T   T   T
  0.1513048343273385  0.9270034354087480  0.9095202136531798   T   T   T
  0.1018251946649546  0.4225975109614935  0.9793560791122625   T   T   T
  0.0551187019826374  0.9211222813542891  0.5465946488325215   T   T   T
  0.5559424596268359  0.0978492818415189  0.7429457370204875   T   T   T
  0.6019880323121136  0.5819321573055157  0.8037580124634867   T   T   T
  0.7510358596767471  0.0781104143568875  0.5166362844734259   T   T   T
  0.6532186683758369  0.0716195520050243  0.8727596112690373   T   T   T
  0.7999572981864224  0.5724203762432950  0.5864315010569199   T   T   T
  0.7020883498510122  0.5765718363644761  0.9469754238056531   T   T   T
  0.8493530339273129  0.0712089160872091  0.6597391983879708   T   T   T
  0.8982227972403306  0.5747451545282658  0.7298477499077596   T   T   T
  0.9446990417902456  0.0757741557377894  0.7977294845927259   T   T   T
  0.5000038169516599  0.5927184839856294  0.6849865372226640   T   T   T
  0.4999713246978238  0.4249253013750711  0.9193929799985632   T   T   T
  0.9969785791432417  0.5628620190188839  0.8748114337783230   T   T   T
  0.0028113139726474  0.4373616516720585  0.6249360017876436   T   T   T
 
  0.00000000E+00  0.00000000E+00  0.00000000E+00
  0.00000000E+00  0.00000000E+00  0.00000000E+00
  0.00000000E+00  0.00000000E+00  0.00000000E+00
  0.00000000E+00  0.00000000E+00  0.00000000E+00
  0.00000000E+00  0.00000000E+00  0.00000000E+00
  0.00000000E+00  0.00000000E+00  0.00000000E+00
  0.00000000E+00  0.00000000E+00  0.00000000E+00
  0.00000000E+00  0.00000000E+00  0.00000000E+00
  0.00000000E+00  0.00000000E+00  0.00000000E+00
  0.00000000E+00  0.00000000E+00  0.00000000E+00
  0.00000000E+00  0.00000000E+00  0.00000000E+00
  0.00000000E+00  0.00000000E+00  0.00000000E+00
  0.00000000E+00  0.00000000E+00  0.00000000E+00
  0.00000000E+00  0.00000000E+00  0.00000000E+00
  0.00000000E+00  0.00000000E+00  0.00000000E+00
  0.00000000E+00  0.00000000E+00  0.00000000E+00
  0.00000000E+00  0.00000000E+00  0.00000000E+00
  0.00000000E+00  0.00000000E+00  0.00000000E+00
  0.00000000E+00  0.00000000E+00  0.00000000E+00
  0.00000000E+00  0.00000000E+00  0.00000000E+00
  0.00000000E+00  0.00000000E+00  0.00000000E+00
  0.00000000E+00  0.00000000E+00  0.00000000E+00
  0.00000000E+00  0.00000000E+00  0.00000000E+00
  0.00000000E+00  0.00000000E+00  0.00000000E+00
  0.00000000E+00  0.00000000E+00  0.00000000E+00
  0.00000000E+00  0.00000000E+00  0.00000000E+00
  0.00000000E+00  0.00000000E+00  0.00000000E+00
  0.00000000E+00  0.00000000E+00  0.00000000E+00
  0.00000000E+00  0.00000000E+00  0.00000000E+00
  0.00000000E+00  0.00000000E+00  0.00000000E+00
  0.00000000E+00  0.00000000E+00  0.00000000E+00
  0.00000000E+00  0.00000000E+00  0.00000000E+00
  0.00000000E+00  0.00000000E+00  0.00000000E+00
  0.00000000E+00  0.00000000E+00  0.00000000E+00
  0.00000000E+00  0.00000000E+00  0.00000000E+00
  0.00000000E+00  0.00000000E+00  0.00000000E+00
  0.00000000E+00  0.00000000E+00  0.00000000E+00
  0.00000000E+00  0.00000000E+00  0.00000000E+00
  0.00000000E+00  0.00000000E+00  0.00000000E+00
  0.00000000E+00  0.00000000E+00  0.00000000E+00
  0.00000000E+00  0.00000000E+00  0.00000000E+00
  0.00000000E+00  0.00000000E+00  0.00000000E+00
  0.00000000E+00  0.00000000E+00  0.00000000E+00
  0.00000000E+00  0.00000000E+00  0.00000000E+00
  0.00000000E+00  0.00000000E+00  0.00000000E+00
  0.00000000E+00  0.00000000E+00  0.00000000E+00
  0.00000000E+00  0.00000000E+00  0.00000000E+00
  0.00000000E+00  0.00000000E+00  0.00000000E+00
  0.00000000E+00  0.00000000E+00  0.00000000E+00
  0.00000000E+00  0.00000000E+00  0.00000000E+00
  0.00000000E+00  0.00000000E+00  0.00000000E+00
  0.00000000E+00  0.00000000E+00  0.00000000E+00
  0.00000000E+00  0.00000000E+00  0.00000000E+00
  0.00000000E+00  0.00000000E+00  0.00000000E+00
  0.00000000E+00  0.00000000E+00  0.00000000E+00
  0.00000000E+00  0.00000000E+00  0.00000000E+00
  0.00000000E+00  0.00000000E+00  0.00000000E+00
  0.00000000E+00  0.00000000E+00  0.00000000E+00
  0.00000000E+00  0.00000000E+00  0.00000000E+00
  0.00000000E+00  0.00000000E+00  0.00000000E+00
  0.00000000E+00  0.00000000E+00  0.00000000E+00
  0.00000000E+00  0.00000000E+00  0.00000000E+00
  0.00000000E+00  0.00000000E+00  0.00000000E+00
  0.00000000E+00  0.00000000E+00  0.00000000E+00
  0.00000000E+00  0.00000000E+00  0.00000000E+00
  0.00000000E+00  0.00000000E+00  0.00000000E+00
  0.00000000E+00  0.00000000E+00  0.00000000E+00
  0.00000000E+00  0.00000000E+00  0.00000000E+00
  0.00000000E+00  0.00000000E+00  0.00000000E+00
  0.00000000E+00  0.00000000E+00  0.00000000E+00
  0.00000000E+00  0.00000000E+00  0.00000000E+00
  0.00000000E+00  0.00000000E+00  0.00000000E+00
  0.00000000E+00  0.00000000E+00  0.00000000E+00
  0.00000000E+00  0.00000000E+00  0.00000000E+00
  0.00000000E+00  0.00000000E+00  0.00000000E+00
  0.00000000E+00  0.00000000E+00  0.00000000E+00
  0.00000000E+00  0.00000000E+00  0.00000000E+00
  0.00000000E+00  0.00000000E+00  0.00000000E+00
  0.00000000E+00  0.00000000E+00  0.00000000E+00
  0.00000000E+00  0.00000000E+00  0.00000000E+00
  0.00000000E+00  0.00000000E+00  0.00000000E+00
