POSCAR                                  
   1.00000000000000     
    24.8377000000000017    0.0000000000000000    0.0000000000000000
     0.0000000000000000    5.1105999999999998    0.0000000000000000
     0.0000000000000000    0.0000000000000000   11.0629000000000008
   Ti
     80
Selective dynamics
Direct
  0.4447129581049912  0.0724179878120077  0.2296586299209670   T   T   T
  0.3975727387167430  0.5716800250515276  0.3041097655725589   T   T   T
  0.2494872759780565  0.0861089207465292  0.0153972446352420   T   T   T
  0.3454042563436467  0.0827405903155023  0.3705344367826897   T   T   T
  0.2001891845018096  0.5819304774362626  0.0843238485397050   T   T   T
  0.2981696213183220  0.5883078094244268  0.4460705323952272   T   T   T
  0.1511202663391805  0.0803340687806136  0.1586586122576454   T   T   T
  0.1023257067678165  0.5823976862959064  0.2283550823066546   T   T   T
  0.0545074348829945  0.0773752432839115  0.2956078004947029   T   T   T
  0.5590745671553661  0.9231116811944359  0.4770444416422360   T   T   T
  0.6037056222506164  0.4102327402464180  0.0520281513950467   T   T   T
  0.7515462477339572  0.9113936832540885  0.2657307933888869   T   T   T
  0.6528365949233038  0.9140089261055759  0.1218764906154513   T   T   T
  0.7994936960914516  0.4158697905729055  0.3359304774211648   T   T   T
  0.7022104776274484  0.4164499656662994  0.1959340692089500   T   T   T
  0.8490225523669584  0.9205682103282141  0.4104717179073526   T   T   T
  0.8983204777110457  0.4172439824662692  0.4799165967734721   T   T   T
  0.9452653515872376  0.9201143548952836  0.0481391747256527   T   T   T
  0.4410119767362031  0.9232784714568169  0.4768108962653164   T   T   T
  0.3963588865745740  0.4104497570689944  0.0516734417209711   T   T   T
  0.2485096171826355  0.9118112291666014  0.2648146875476778   T   T   T
  0.3472447497179125  0.9142970467528443  0.1213139591670390   T   T   T
  0.2006143049372717  0.4160781866160767  0.3349431077497556   T   T   T
  0.2978756186046692  0.4168873823379201  0.1952484062579374   T   T   T
  0.1510774050743426  0.9212145673497965  0.4090483801780895   T   T   T
  0.1017191078861197  0.4172246628184434  0.4789208828240468   T   T   T
  0.0547895109291044  0.9199058474098901  0.0458379855274126   T   T   T
  0.5553578068434204  0.0721788567855927  0.2299356015818791   T   T   T
  0.6024971477616996  0.5712191272170968  0.3043924654481605   T   T   T
  0.7505682206585113  0.0855042498513007  0.0162577630208776   T   T   T
  0.6546943612089083  0.0823101089284062  0.3710604793724682   T   T   T
  0.7998503790820184  0.5812145942080843  0.0853259843164959   T   T   T
  0.7018887083100775  0.5877805428005192  0.4467541524923067   T   T   T
  0.8488752455618910  0.0797931225575690  0.1600749673881139   T   T   T
  0.8978339427489086  0.5812947549546672  0.2293249919040209   T   T   T
  0.9454724439530549  0.0781712790103385  0.2978954280788998   T   T   T
  0.5000453166875397  0.5646057284522793  0.1640467567697719   T   T   T
  0.5000004525024802  0.4121529037042763  0.4029254004024253   T   T   T
  0.9998341802025249  0.5735066741055007  0.3703959656543542   T   T   T
  0.0001046794219312  0.4349876182082242  0.1205617117586463   T   T   T
  0.4445853250897403  0.1017040865056850  0.7429497269373184   T   T   T
  0.3968347727913148  0.5851927609820780  0.8045862834140182   T   T   T
  0.2494581906525229  0.0879327602955781  0.5158872105117068   T   T   T
  0.3474078419630533  0.0793188040077262  0.8728372029140006   T   T   T
  0.2001330115974893  0.5833313821330908  0.5842422995497774   T   T   T
  0.2983999616088903  0.5833756648453736  0.9465834135828940   T   T   T
  0.1511128054608809  0.0808140938394354  0.6588458099978495   T   T   T
  0.1022677468296036  0.5831663372323016  0.7285463332457164   T   T   T
  0.0545930538814306  0.0775731901747051  0.7953424363796325   T   T   T
  0.5547347702008733  0.9011167855984042  0.9834207819929005   T   T   T
  0.6059458557367559  0.4114457687163126  0.5524131176414167   T   T   T
  0.7507660366531669  0.9127475932561585  0.7662565616336916   T   T   T
  0.6524100993873094  0.9207566965696673  0.6223369110164413   T   T   T
  0.7995129354914919  0.4165537482532990  0.8358450677274573   T   T   T
  0.7017301982611543  0.4178041815421495  0.6960268868102936   T   T   T
  0.8488899519571624  0.9203502475263127  0.9102511019341027   T   T   T
  0.8981173457916910  0.4172657439468657  0.9795523231541822   T   T   T
  0.9453227019214584  0.9190343750621777  0.5484879817652805   T   T   T
  0.4453474068137420  0.9013599052018044  0.9831144077396347   T   T   T
  0.3940819231186509  0.4116859885731635  0.5520536052189289   T   T   T
  0.2492463801084927  0.9131318559303900  0.7653404701965004   T   T   T
  0.3476264215089678  0.9209816750831330  0.6217901919715277   T   T   T
  0.2005820564262364  0.4167073110321838  0.8348924511961204   T   T   T
  0.2983181398527423  0.4182197378736442  0.6953511344596719   T   T   T
  0.1511820746264533  0.9210161980153503  0.9088791572079451   T   T   T
  0.1019299429898679  0.4172183779026211  0.9786052106490100   T   T   T
  0.0547721678414131  0.9187984596729015  0.5461995792381540   T   T   T
  0.5554641081368010  0.1013042098298304  0.7432705430706300   T   T   T
  0.6032138166639716  0.5847655457133377  0.8049104952824624   T   T   T
  0.7506070723994080  0.0873090254573236  0.5167375230723847   T   T   T
  0.6526313035492011  0.0787540609728636  0.8733575933661939   T   T   T
  0.7998918921294973  0.5826155582416611  0.5852659263189454   T   T   T
  0.7016581076677307  0.5827465900012027  0.9472767489551189   T   T   T
  0.8488725425833636  0.0801893523427789  0.6602856496685959   T   T   T
  0.8978924744889918  0.5820441256370152  0.7295425477198074   T   T   T
  0.9453833359915529  0.0781716486783583  0.7976595842813611   T   T   T
  0.5000346434115845  0.6016764897945296  0.6953760854504104   T   T   T
  0.5000355781108851  0.4114193079962237  0.9243880142804248   T   T   T
  0.9998647970552914  0.5736839237286727  0.8704360941316681   T   T   T
  0.0001232492585286  0.4342652658126316  0.6199038096293833   T   T   T
 
  0.00000000E+00  0.00000000E+00  0.00000000E+00
  0.00000000E+00  0.00000000E+00  0.00000000E+00
  0.00000000E+00  0.00000000E+00  0.00000000E+00
  0.00000000E+00  0.00000000E+00  0.00000000E+00
  0.00000000E+00  0.00000000E+00  0.00000000E+00
  0.00000000E+00  0.00000000E+00  0.00000000E+00
  0.00000000E+00  0.00000000E+00  0.00000000E+00
  0.00000000E+00  0.00000000E+00  0.00000000E+00
  0.00000000E+00  0.00000000E+00  0.00000000E+00
  0.00000000E+00  0.00000000E+00  0.00000000E+00
  0.00000000E+00  0.00000000E+00  0.00000000E+00
  0.00000000E+00  0.00000000E+00  0.00000000E+00
  0.00000000E+00  0.00000000E+00  0.00000000E+00
  0.00000000E+00  0.00000000E+00  0.00000000E+00
  0.00000000E+00  0.00000000E+00  0.00000000E+00
  0.00000000E+00  0.00000000E+00  0.00000000E+00
  0.00000000E+00  0.00000000E+00  0.00000000E+00
  0.00000000E+00  0.00000000E+00  0.00000000E+00
  0.00000000E+00  0.00000000E+00  0.00000000E+00
  0.00000000E+00  0.00000000E+00  0.00000000E+00
  0.00000000E+00  0.00000000E+00  0.00000000E+00
  0.00000000E+00  0.00000000E+00  0.00000000E+00
  0.00000000E+00  0.00000000E+00  0.00000000E+00
  0.00000000E+00  0.00000000E+00  0.00000000E+00
  0.00000000E+00  0.00000000E+00  0.00000000E+00
  0.00000000E+00  0.00000000E+00  0.00000000E+00
  0.00000000E+00  0.00000000E+00  0.00000000E+00
  0.00000000E+00  0.00000000E+00  0.00000000E+00
  0.00000000E+00  0.00000000E+00  0.00000000E+00
  0.00000000E+00  0.00000000E+00  0.00000000E+00
  0.00000000E+00  0.00000000E+00  0.00000000E+00
  0.00000000E+00  0.00000000E+00  0.00000000E+00
  0.00000000E+00  0.00000000E+00  0.00000000E+00
  0.00000000E+00  0.00000000E+00  0.00000000E+00
  0.00000000E+00  0.00000000E+00  0.00000000E+00
  0.00000000E+00  0.00000000E+00  0.00000000E+00
  0.00000000E+00  0.00000000E+00  0.00000000E+00
  0.00000000E+00  0.00000000E+00  0.00000000E+00
  0.00000000E+00  0.00000000E+00  0.00000000E+00
  0.00000000E+00  0.00000000E+00  0.00000000E+00
  0.00000000E+00  0.00000000E+00  0.00000000E+00
  0.00000000E+00  0.00000000E+00  0.00000000E+00
  0.00000000E+00  0.00000000E+00  0.00000000E+00
  0.00000000E+00  0.00000000E+00  0.00000000E+00
  0.00000000E+00  0.00000000E+00  0.00000000E+00
  0.00000000E+00  0.00000000E+00  0.00000000E+00
  0.00000000E+00  0.00000000E+00  0.00000000E+00
  0.00000000E+00  0.00000000E+00  0.00000000E+00
  0.00000000E+00  0.00000000E+00  0.00000000E+00
  0.00000000E+00  0.00000000E+00  0.00000000E+00
  0.00000000E+00  0.00000000E+00  0.00000000E+00
  0.00000000E+00  0.00000000E+00  0.00000000E+00
  0.00000000E+00  0.00000000E+00  0.00000000E+00
  0.00000000E+00  0.00000000E+00  0.00000000E+00
  0.00000000E+00  0.00000000E+00  0.00000000E+00
  0.00000000E+00  0.00000000E+00  0.00000000E+00
  0.00000000E+00  0.00000000E+00  0.00000000E+00
  0.00000000E+00  0.00000000E+00  0.00000000E+00
  0.00000000E+00  0.00000000E+00  0.00000000E+00
  0.00000000E+00  0.00000000E+00  0.00000000E+00
  0.00000000E+00  0.00000000E+00  0.00000000E+00
  0.00000000E+00  0.00000000E+00  0.00000000E+00
  0.00000000E+00  0.00000000E+00  0.00000000E+00
  0.00000000E+00  0.00000000E+00  0.00000000E+00
  0.00000000E+00  0.00000000E+00  0.00000000E+00
  0.00000000E+00  0.00000000E+00  0.00000000E+00
  0.00000000E+00  0.00000000E+00  0.00000000E+00
  0.00000000E+00  0.00000000E+00  0.00000000E+00
  0.00000000E+00  0.00000000E+00  0.00000000E+00
  0.00000000E+00  0.00000000E+00  0.00000000E+00
  0.00000000E+00  0.00000000E+00  0.00000000E+00
  0.00000000E+00  0.00000000E+00  0.00000000E+00
  0.00000000E+00  0.00000000E+00  0.00000000E+00
  0.00000000E+00  0.00000000E+00  0.00000000E+00
  0.00000000E+00  0.00000000E+00  0.00000000E+00
  0.00000000E+00  0.00000000E+00  0.00000000E+00
  0.00000000E+00  0.00000000E+00  0.00000000E+00
  0.00000000E+00  0.00000000E+00  0.00000000E+00
  0.00000000E+00  0.00000000E+00  0.00000000E+00
  0.00000000E+00  0.00000000E+00  0.00000000E+00
  0.00000000E+00  0.00000000E+00  0.00000000E+00
